.Version 8.5.3 of ABINIT

 ABINIT is a project of the Universite Catholique de Louvain,
 Corning Inc. and other collaborators, see ~abinit/doc/developers/contributors.txt .
 Please read ~abinit/doc/users/acknowledgments.html for suggested
 acknowledgments of the ABINIT effort.

.Starting date : Wed 11 Oct 2017.
- ( at 00h28 )

- input  file    -> /Users/gmatteo/git_repos/abitutorials/abitutorials/base3/flow_base3_relax/w0/t1/run.abi
- output file    -> /Users/gmatteo/git_repos/abitutorials/abitutorials/base3/flow_base3_relax/w0/t1/run.abo
- root for input  files -> /Users/gmatteo/git_repos/abitutorials/abitutorials/base3/flow_base3_relax/w0/t1/indata/in
- root for output files -> /Users/gmatteo/git_repos/abitutorials/abitutorials/base3/flow_base3_relax/w0/t1/outdata/out

 Symmetries : space group Fd -3 m (#227); Bravais cF (face-center cubic)
     intxc =       0    ionmov =       3      iscf =       7    lmnmax =       2
     lnmax =       2     mgfft =      20  mpssoang =       3    mqgrid =    3001
     natom =       2  nloc_mem =       1    nspden =       1   nspinor =       1
    nsppol =       1      nsym =      48    n1xccc =    2501    ntypat =       1
    occopt =       1   xclevel =       1
-    mband =           5        mffmem =           1         mkmem =           5
       mpw =         353          nfft =        8000          nkpt =          10
  Rough estimation (10% accuracy) of disk space for files :

------------- Echo of variables that govern the present computation ------------
-
- outvars: echo of selected default values
-   iomode0 =  0 , fftalg0 =112 , wfoptalg0 =  0
-
- outvars: echo of global parameters not present in the input file
-  max_nthreads =    0
-
 -outvars: echo values of preprocessed input variables --------
-          iomode           3
            acell      1.0000000000E+00  1.0000000000E+00  1.0000000000E+00 Bohr
              amu      2.80855000E+01
           diemac      1.20000000E+01
          dilatmx      1.05000000E+00
             ecut      8.00000000E+00 Hartree
           ecutsm      5.00000000E-01 Hartree
-          fftalg         112
           ionmov           3
              kpt     -1.25000000E-01 -2.50000000E-01  0.00000000E+00
                      -1.25000000E-01  5.00000000E-01  0.00000000E+00
                      -2.50000000E-01 -3.75000000E-01  0.00000000E+00
                      -1.25000000E-01 -3.75000000E-01  1.25000000E-01
                      -1.25000000E-01  2.50000000E-01  0.00000000E+00
                      -2.50000000E-01  3.75000000E-01  0.00000000E+00
                      -3.75000000E-01  5.00000000E-01  0.00000000E+00
                      -2.50000000E-01  5.00000000E-01  1.25000000E-01
                      -1.25000000E-01  0.00000000E+00  0.00000000E+00
                      -3.75000000E-01  0.00000000E+00  0.00000000E+00
         kptrlatt        4   -4    4     -4    4    4     -4   -4    4
          kptrlen      4.13375923E+01
P           mkmem           5
            natom           2
            nband           5
            ngfft          20      20      20
             nkpt          10
             nsym          48
            ntime          10
           ntypat           1
              occ      2.000000  2.000000  2.000000  2.000000  0.000000
          optcell           1
            rprim      6.3285005272E+00  0.0000000000E+00  3.6537614829E+00
                       2.1095001757E+00  5.9665675167E+00  3.6537614829E+00
                       0.0000000000E+00  0.0000000000E+00  7.3075229659E+00
           shiftk      5.00000000E-01  5.00000000E-01  5.00000000E-01
          spgroup         227
           symrel      1  0  0   0  1  0   0  0  1      -1  0  0   0 -1  0   0  0 -1
                       0 -1  1   0 -1  0   1 -1  0       0  1 -1   0  1  0  -1  1  0
                      -1  0  0  -1  0  1  -1  1  0       1  0  0   1  0 -1   1 -1  0
                       0  1 -1   1  0 -1   0  0 -1       0 -1  1  -1  0  1   0  0  1
                      -1  0  0  -1  1  0  -1  0  1       1  0  0   1 -1  0   1  0 -1
                       0 -1  1   1 -1  0   0 -1  0       0  1 -1  -1  1  0   0  1  0
                       1  0  0   0  0  1   0  1  0      -1  0  0   0  0 -1   0 -1  0
                       0  1 -1   0  0 -1   1  0 -1       0 -1  1   0  0  1  -1  0  1
                      -1  0  1  -1  1  0  -1  0  0       1  0 -1   1 -1  0   1  0  0
                       0 -1  0   1 -1  0   0 -1  1       0  1  0  -1  1  0   0  1 -1
                       1  0 -1   0  0 -1   0  1 -1      -1  0  1   0  0  1   0 -1  1
                       0  1  0   0  0  1   1  0  0       0 -1  0   0  0 -1  -1  0  0
                       1  0 -1   0  1 -1   0  0 -1      -1  0  1   0 -1  1   0  0  1
                       0 -1  0   0 -1  1   1 -1  0       0  1  0   0  1 -1  -1  1  0
                      -1  0  1  -1  0  0  -1  1  0       1  0 -1   1  0  0   1 -1  0
                       0  1  0   1  0  0   0  0  1       0 -1  0  -1  0  0   0  0 -1
                       0  0 -1   0  1 -1   1  0 -1       0  0  1   0 -1  1  -1  0  1
                       1 -1  0   0 -1  1   0 -1  0      -1  1  0   0  1 -1   0  1  0
                       0  0  1   1  0  0   0  1  0       0  0 -1  -1  0  0   0 -1  0
                      -1  1  0  -1  0  0  -1  0  1       1 -1  0   1  0  0   1  0 -1
                       0  0  1   0  1  0   1  0  0       0  0 -1   0 -1  0  -1  0  0
                       1 -1  0   0 -1  0   0 -1  1      -1  1  0   0  1  0   0  1 -1
                       0  0 -1   1  0 -1   0  1 -1       0  0  1  -1  0  1   0 -1  1
                      -1  1  0  -1  0  1  -1  0  0       1 -1  0   1  0 -1   1  0  0
            tnons      0.0000000  0.0000000  0.0000000     0.2500000  0.2500000  0.2500000
                       0.0000000  0.0000000  0.0000000     0.2500000  0.2500000  0.2500000
                       0.0000000  0.0000000  0.0000000     0.2500000  0.2500000  0.2500000
                       0.0000000  0.0000000  0.0000000     0.2500000  0.2500000  0.2500000
                       0.0000000  0.0000000  0.0000000     0.2500000  0.2500000  0.2500000
                       0.0000000  0.0000000  0.0000000     0.2500000  0.2500000  0.2500000
                       0.0000000  0.0000000  0.0000000     0.2500000  0.2500000  0.2500000
                       0.0000000  0.0000000  0.0000000     0.2500000  0.2500000  0.2500000
                       0.0000000  0.0000000  0.0000000     0.2500000  0.2500000  0.2500000
                       0.0000000  0.0000000  0.0000000     0.2500000  0.2500000  0.2500000
                       0.0000000  0.0000000  0.0000000     0.2500000  0.2500000  0.2500000
                       0.0000000  0.0000000  0.0000000     0.2500000  0.2500000  0.2500000
                       0.0000000  0.0000000  0.0000000     0.2500000  0.2500000  0.2500000
                       0.0000000  0.0000000  0.0000000     0.2500000  0.2500000  0.2500000
                       0.0000000  0.0000000  0.0000000     0.2500000  0.2500000  0.2500000
                       0.0000000  0.0000000  0.0000000     0.2500000  0.2500000  0.2500000
                       0.0000000  0.0000000  0.0000000     0.2500000  0.2500000  0.2500000
                       0.0000000  0.0000000  0.0000000     0.2500000  0.2500000  0.2500000
                       0.0000000  0.0000000  0.0000000     0.2500000  0.2500000  0.2500000
                       0.0000000  0.0000000  0.0000000     0.2500000  0.2500000  0.2500000
                       0.0000000  0.0000000  0.0000000     0.2500000  0.2500000  0.2500000
                       0.0000000  0.0000000  0.0000000     0.2500000  0.2500000  0.2500000
                       0.0000000  0.0000000  0.0000000     0.2500000  0.2500000  0.2500000
                       0.0000000  0.0000000  0.0000000     0.2500000  0.2500000  0.2500000
           tolvrs      1.00000000E-09
            typat      1  1
              wtk        0.09375    0.09375    0.09375    0.18750    0.09375    0.09375
                         0.09375    0.18750    0.03125    0.03125
           xangst      0.0000000000E+00  0.0000000000E+00  0.0000000000E+00
                       1.1162994145E+00  7.8934288584E-01  1.9334873024E+00
            xcart      0.0000000000E+00  0.0000000000E+00  0.0000000000E+00
                       2.1095001757E+00  1.4916418792E+00  3.6537614829E+00
             xred      0.0000000000E+00  0.0000000000E+00  0.0000000000E+00
                       2.5000000000E-01  2.5000000000E-01  2.5000000000E-01
            znucl       14.00000

 chkinp: Checking input parameters for consistency.

== DATASET  1 ==================================================================
-   nproc =    2

 Real(R)+Recip(G) space primitive vectors, cartesian coordinates (Bohr,Bohr^-1):
 R(1)=  6.3285005  0.0000000  3.6537615  G(1)=  0.1580153 -0.0558669  0.0000000
 R(2)=  2.1095002  5.9665675  3.6537615  G(2)=  0.0000000  0.1676006  0.0000000
 R(3)=  0.0000000  0.0000000  7.3075230  G(3)= -0.0790077 -0.0558669  0.1368453
 Unit cell volume ucvol=  2.7592787E+02 bohr^3
 Angles (23,13,12)=  6.00000000E+01  6.00000000E+01  6.00000000E+01 degrees

 getcut: wavevector=  0.0000  0.0000  0.0000  ngfft=  20  20  20
         ecut(hartree)=      8.820   => boxcut(ratio)=   2.04720

--- Pseudopotential description ------------------------------------------------
- pspini: atom type   1  psp file is /Users/gmatteo/git_repos/abipy/abipy/data/pseudos/14si.pspnc
- pspatm: opening atomic psp file    /Users/gmatteo/git_repos/abipy/abipy/data/pseudos/14si.pspnc
-  Troullier-Martins psp for element  Si        Thu Oct 27 17:31:21 EDT 1994
- 14.00000   4.00000    940714                znucl, zion, pspdat
    1    1    2    2      2001   0.00000      pspcod,pspxc,lmax,lloc,mmax,r2well
    0   5.907  14.692    1   2.0872718        l,e99.0,e99.9,nproj,rcpsp
   0.00000000   0.00000000   0.00000000   0.00000000     rms, ekb1, ekb2, epsatm
    1   2.617   4.181    1   2.0872718        l,e99.0,e99.9,nproj,rcpsp
   0.00000000   0.00000000   0.00000000   0.00000000     rms, ekb1, ekb2, epsatm
    2   0.000   0.000    0   2.0872718        l,e99.0,e99.9,nproj,rcpsp
   0.00000000   0.00000000   0.00000000   0.00000000     rms, ekb1, ekb2, epsatm
    1.80626423934776    0.22824404341771    1.17378968127746   rchrg,fchrg,qchrg
  pspatm : epsatm=    1.43386982
         --- l  ekb(1:nproj) -->
             0    3.287949
             1    1.849886
 pspatm: atomic psp has been read  and splines computed

   2.29419171E+01                                ecore*ucvol(ha*bohr**3)

_setup2: Arith. and geom. avg. npw (full set) are     345.406     345.378

=== [ionmov= 3] Broyden-Fletcher-Goldfard-Shanno method (forces,Tot energy)

--- Iteration: ( 1/10) Internal Cycle: (1/1)

---SELF-CONSISTENT-FIELD CONVERGENCE--------------------------------------------

     iter   Etot(hartree)      deltaE(h)  residm     vres2
 ETOT  1  -8.8664758857306    -8.866E+00 6.498E-03 5.283E+00
 ETOT  2  -8.8716121104209    -5.136E-03 3.516E-05 1.537E-01
 ETOT  3  -8.8716871737910    -7.506E-05 8.090E-06 3.244E-03
 ETOT  4  -8.8716882021140    -1.028E-06 7.095E-07 1.172E-05
 ETOT  5  -8.8716882073299    -5.216E-09 1.136E-07 1.217E-08
 ETOT  6  -8.8716882073360    -6.125E-12 1.034E-08 9.629E-11

 At SCF step    6       vres2   =  9.63E-11 < tolvrs=  1.00E-09 =>converged.

 Cartesian components of stress tensor (hartree/bohr^3)
  sigma(1 1)=  1.09430427E-04  sigma(3 2)=  2.29487653E-15
  sigma(2 2)=  1.09430427E-04  sigma(3 1)=  3.24534236E-15
  sigma(3 3)=  1.09430427E-04  sigma(2 1)=  2.29470167E-15

 Integrated electronic density in atomic spheres:
 Atom  Sphere_radius  Integrated_density
    1        2.00000          1.74584465
    2        2.00000          1.74584465

---OUTPUT-----------------------------------------------------------------------

 Cartesian coordinates (xcart) [bohr]
  0.00000000000000E+00  0.00000000000000E+00  0.00000000000000E+00
  2.10950017572500E+00  1.49164187917500E+00  3.65376148292500E+00
 Reduced coordinates (xred)
  0.00000000000000E+00  0.00000000000000E+00  0.00000000000000E+00
  2.50000000000000E-01  2.50000000000000E-01  2.50000000000000E-01
 Cartesian forces (fcart) [Ha/bohr]; max,rms= 1.12822E-28 8.80367E-29 (free atoms)
  7.97773464927876E-29 -1.12822205380892E-28 -6.44832614623173E-29
 -7.97773464927876E-29  1.12822205380892E-28  6.44832614623173E-29
 Reduced forces (fred)
 -2.69264522315439E-28  7.40477436367456E-28  4.71212914052018E-28
  2.69264522315439E-28 -7.40477436367456E-28 -4.71212914052018E-28
 Scale of Primitive Cell (acell) [bohr]
  1.00000000000000E+00  1.00000000000000E+00  1.00000000000000E+00
 Real space primitive translations (rprimd) [bohr]
  6.32850052720000E+00  0.00000000000000E+00  3.65376148290000E+00
  2.10950017570000E+00  5.96656751670000E+00  3.65376148290000E+00
  0.00000000000000E+00  0.00000000000000E+00  7.30752296590000E+00
 Unitary Cell Volume (ucvol) [Bohr^3]=  2.75927870299332E+02
 Angles (23,13,12)= [degrees]
  6.00000000002624E+01  6.00000000003097E+01  6.00000000004205E+01
 Lengths [Bohr]
  7.30752296586841E+00  7.30752296585796E+00  7.30752296590000E+00
 Stress tensor in cartesian coordinates (strten) [Ha/bohr^3]
  1.09430426881371E-04  2.29470167165258E-15  3.24534236290086E-15
  2.29470167165258E-15  1.09430426881511E-04  2.29487652839144E-15
  3.24534236290086E-15  2.29487652839144E-15  1.09430426880384E-04
 Total energy (etotal) [Ha]= -8.87168820733599E+00

[...]

 Difference of energy with previous step (new-old):
           Absolute (Ha)=-2.56463E-04
           Relative     =-2.89076E-05

[...]

--- Iteration: ( 4/10) Internal Cycle: (1/1)

---SELF-CONSISTENT-FIELD CONVERGENCE--------------------------------------------

     iter   Etot(hartree)      deltaE(h)  residm     vres2
 ETOT  1  -8.8722124418130    -8.872E+00 6.784E-06 9.096E-04
 ETOT  2  -8.8722130737458    -6.319E-07 9.349E-08 2.783E-05
 ETOT  3  -8.8722130863972    -1.265E-08 4.014E-09 4.534E-07
 ETOT  4  -8.8722130865406    -1.434E-10 2.524E-11 5.049E-10

 At SCF step    4       vres2   =  5.05E-10 < tolvrs=  1.00E-09 =>converged.

[...]

 Integrated electronic density in atomic spheres:
 Atom  Sphere_radius  Integrated_density
    1        2.00000          1.71533965
    2        2.00000          1.71533965

---OUTPUT-----------------------------------------------------------------------

 Cartesian coordinates (xcart) [bohr]
  1.25107926777093E-28 -8.18859681401473E-28  5.30050439971816E-29
  2.08549037481654E+00  1.47466438613763E+00  3.61217528787201E+00
 Reduced coordinates (xred)
  6.62703519768937E-29 -1.38821363202883E-28  4.36125033732085E-29
  2.50000000000000E-01  2.50000000000000E-01  2.50000000000000E-01
 Cartesian forces (fcart) [Ha/bohr]; max,rms= 1.21729E-28 7.13701E-29 (free atoms)
  1.07594407838711E-29  1.21729176639324E-28  1.86358980984160E-29
 -1.07594407838711E-29 -1.21729176639324E-28 -1.86358980984160E-29
 Reduced forces (fred)
 -1.34632261157719E-28 -8.07793566946316E-28 -1.34632261157719E-28
  1.34632261157719E-28  8.07793566946316E-28  1.34632261157719E-28
 Scale of Primitive Cell (acell) [bohr]
  9.88618251287793E-01  9.88618251287793E-01  9.88618251287793E-01
 Real space primitive translations (rprimd) [bohr]
  6.25647112447434E+00  0.00000000000000E+00  3.61217528784729E+00
  2.08549037479183E+00  5.89865754455050E+00  3.61217528784729E+00
  0.00000000000000E+00  0.00000000000000E+00  7.22435057579345E+00
 Unitary Cell Volume (ucvol) [Bohr^3]=  2.66613072981786E+02
 Angles (23,13,12)= [degrees]
  6.00000000002624E+01  6.00000000003097E+01  6.00000000004205E+01
 Lengths [Bohr]
  7.22435057576222E+00  7.22435057575189E+00  7.22435057579345E+00
 Stress tensor in cartesian coordinates (strten) [Ha/bohr^3]
  2.97635815408042E-07  1.80482846986003E-15  2.55223901908519E-15
  1.80482846986003E-15  2.97635815517871E-07  1.80481714642799E-15
  2.55223901908519E-15  1.80481714642799E-15  2.97635814631536E-07
 Total energy (etotal) [Ha]= -8.87221308654058E+00

 Difference of energy with previous step (new-old):
           Absolute (Ha)=-2.57453E-06
           Relative     =-2.90179E-07

 At Broyd/MD step   4, gradients are converged :
  max grad (force/stress) = 2.9764E-05 < tolmxf= 5.0000E-05 ha/bohr (free atoms)

 ----iterations are completed or convergence reached----

 Mean square residual over all n,k,spin=   1.5729E-12; max=  2.5242E-11
 reduced coordinates (array xred) for    2 atoms
       0.000000000000     -0.000000000000      0.000000000000
       0.250000000000      0.250000000000      0.250000000000
 rms dE/dt=  5.1560E-28; max dE/dt=  6.7316E-28; dE/dt below (all hartree)
    1       0.000000000000     -0.000000000000     -0.000000000000
    2       0.000000000000      0.000000000000      0.000000000000

 cartesian coordinates (angstrom) at end:
    1      0.00000000000000    -0.00000000000000     0.00000000000000
    2      1.10359397508673     0.78035878346339     1.91148083577389

 cartesian forces (hartree/bohr) at end:
    1      0.00000000000000     0.00000000000000     0.00000000000000
    2     -0.00000000000000    -0.00000000000000    -0.00000000000000
 frms,max,avg= 7.1370056E-29 1.2172918E-28   0.000E+00  0.000E+00  0.000E+00 h/b

 cartesian forces (eV/Angstrom) at end:
    1      0.00000000000000     0.00000000000000     0.00000000000000
    2     -0.00000000000000    -0.00000000000000    -0.00000000000000
 frms,max,avg= 3.6699955E-27 6.2595654E-27   0.000E+00  0.000E+00  0.000E+00 e/A
 length scales=  0.988618251288  0.988618251288  0.988618251288 bohr
              =  0.523154246578  0.523154246578  0.523154246578 angstroms
 prteigrs : about to open file /Users/gmatteo/git_repos/abitutorials/abitutorials/base3/flow_base3_relax/w0/t1/outdata/out_EIG
 Fermi (or HOMO) energy (hartree) =   0.20649   Average Vxc (hartree)=  -0.35453
 Eigenvalues (hartree) for nkpt=  10  k points:
 kpt#   1, nband=  5, wtk=  0.09375, kpt= -0.1250 -0.2500  0.0000 (reduced coord)
  -0.19907    0.09752    0.16771    0.17058    0.29405
 prteigrs : prtvol=0 or 1, do not print more k-points.

 Components of total free energy (in Hartree) :

    Kinetic energy  =  3.02462217942420E+00
    Hartree energy  =  5.37896707097902E-01
    XC energy       = -3.53871543330932E+00
    Ewald energy    = -8.43600572466414E+00
    PspCore energy  =  8.60494831912319E-02
    Loc. psp. energy= -2.43165295724118E+00
    NL   psp  energy=  1.88559265896072E+00
    >>>>>>>>> Etotal= -8.87221308654058E+00

 Other information on the energy :
    Total energy(eV)= -2.41425195985571E+02 ; Band energy (Ha)=   2.3161862515E-01

 Cartesian components of stress tensor (hartree/bohr^3)
  sigma(1 1)=  2.97635815E-07  sigma(3 2)=  1.80481715E-15
  sigma(2 2)=  2.97635816E-07  sigma(3 1)=  2.55223902E-15
  sigma(3 3)=  2.97635815E-07  sigma(2 1)=  1.80482847E-15

-Cartesian components of stress tensor (GPa)         [Pressure= -8.7567E-03 GPa]
- sigma(1 1)=  8.75674654E-03  sigma(3 2)=  5.30995448E-11
- sigma(2 2)=  8.75674654E-03  sigma(3 1)=  7.50894518E-11
- sigma(3 3)=  8.75674652E-03  sigma(2 1)=  5.30998779E-11

== END DATASET(S) ==============================================================

 -outvars: echo values of variables after computation  --------
-          iomode           3
            acell      9.8861825129E-01  9.8861825129E-01  9.8861825129E-01 Bohr
              amu      2.80855000E+01
           diemac      1.20000000E+01
          dilatmx      1.05000000E+00
             ecut      8.00000000E+00 Hartree
           ecutsm      5.00000000E-01 Hartree
           etotal     -8.8722130865E+00
            fcart      1.0759440784E-29  1.2172917664E-28  1.8635898098E-29
                      -1.0759440784E-29 -1.2172917664E-28 -1.8635898098E-29
-          fftalg         112
           ionmov           3
              kpt     -1.25000000E-01 -2.50000000E-01  0.00000000E+00
                      -1.25000000E-01  5.00000000E-01  0.00000000E+00
                      -2.50000000E-01 -3.75000000E-01  0.00000000E+00
                      -1.25000000E-01 -3.75000000E-01  1.25000000E-01
                      -1.25000000E-01  2.50000000E-01  0.00000000E+00
                      -2.50000000E-01  3.75000000E-01  0.00000000E+00
                      -3.75000000E-01  5.00000000E-01  0.00000000E+00
                      -2.50000000E-01  5.00000000E-01  1.25000000E-01
                      -1.25000000E-01  0.00000000E+00  0.00000000E+00
                      -3.75000000E-01  0.00000000E+00  0.00000000E+00
         kptrlatt        4   -4    4     -4    4    4     -4   -4    4
          kptrlen      4.13375923E+01
P           mkmem           5
            natom           2
            nband           5
            ngfft          20      20      20
             nkpt          10
             nsym          48
            ntime          10
           ntypat           1
              occ      2.000000  2.000000  2.000000  2.000000  0.000000
          optcell           1
            rprim      6.3285005272E+00  0.0000000000E+00  3.6537614829E+00
                       2.1095001757E+00  5.9665675167E+00  3.6537614829E+00
                       0.0000000000E+00  0.0000000000E+00  7.3075229659E+00
           shiftk      5.00000000E-01  5.00000000E-01  5.00000000E-01
          spgroup         227
           strten      2.9763581541E-07  2.9763581552E-07  2.9763581463E-07
                       1.8048171464E-15  2.5522390191E-15  1.8048284699E-15
           symrel      1  0  0   0  1  0   0  0  1      -1  0  0   0 -1  0   0  0 -1
                       0 -1  1   0 -1  0   1 -1  0       0  1 -1   0  1  0  -1  1  0
                      -1  0  0  -1  0  1  -1  1  0       1  0  0   1  0 -1   1 -1  0
                       0  1 -1   1  0 -1   0  0 -1       0 -1  1  -1  0  1   0  0  1
                      -1  0  0  -1  1  0  -1  0  1       1  0  0   1 -1  0   1  0 -1
                       0 -1  1   1 -1  0   0 -1  0       0  1 -1  -1  1  0   0  1  0
                       1  0  0   0  0  1   0  1  0      -1  0  0   0  0 -1   0 -1  0
                       0  1 -1   0  0 -1   1  0 -1       0 -1  1   0  0  1  -1  0  1
                      -1  0  1  -1  1  0  -1  0  0       1  0 -1   1 -1  0   1  0  0
                       0 -1  0   1 -1  0   0 -1  1       0  1  0  -1  1  0   0  1 -1
                       1  0 -1   0  0 -1   0  1 -1      -1  0  1   0  0  1   0 -1  1
                       0  1  0   0  0  1   1  0  0       0 -1  0   0  0 -1  -1  0  0
                       1  0 -1   0  1 -1   0  0 -1      -1  0  1   0 -1  1   0  0  1
                       0 -1  0   0 -1  1   1 -1  0       0  1  0   0  1 -1  -1  1  0
                      -1  0  1  -1  0  0  -1  1  0       1  0 -1   1  0  0   1 -1  0
                       0  1  0   1  0  0   0  0  1       0 -1  0  -1  0  0   0  0 -1
                       0  0 -1   0  1 -1   1  0 -1       0  0  1   0 -1  1  -1  0  1
                       1 -1  0   0 -1  1   0 -1  0      -1  1  0   0  1 -1   0  1  0
                       0  0  1   1  0  0   0  1  0       0  0 -1  -1  0  0   0 -1  0
                      -1  1  0  -1  0  0  -1  0  1       1 -1  0   1  0  0   1  0 -1
                       0  0  1   0  1  0   1  0  0       0  0 -1   0 -1  0  -1  0  0
                       1 -1  0   0 -1  0   0 -1  1      -1  1  0   0  1  0   0  1 -1
                       0  0 -1   1  0 -1   0  1 -1       0  0  1  -1  0  1   0 -1  1
                      -1  1  0  -1  0  1  -1  0  0       1 -1  0   1  0 -1   1  0  0
            tnons      0.0000000  0.0000000  0.0000000     0.2500000  0.2500000  0.2500000
                       0.0000000  0.0000000  0.0000000     0.2500000  0.2500000  0.2500000
                       0.0000000  0.0000000  0.0000000     0.2500000  0.2500000  0.2500000
                       0.0000000  0.0000000  0.0000000     0.2500000  0.2500000  0.2500000
                       0.0000000  0.0000000  0.0000000     0.2500000  0.2500000  0.2500000
                       0.0000000  0.0000000  0.0000000     0.2500000  0.2500000  0.2500000
                       0.0000000  0.0000000  0.0000000     0.2500000  0.2500000  0.2500000
                       0.0000000  0.0000000  0.0000000     0.2500000  0.2500000  0.2500000
                       0.0000000  0.0000000  0.0000000     0.2500000  0.2500000  0.2500000
                       0.0000000  0.0000000  0.0000000     0.2500000  0.2500000  0.2500000
                       0.0000000  0.0000000  0.0000000     0.2500000  0.2500000  0.2500000
                       0.0000000  0.0000000  0.0000000     0.2500000  0.2500000  0.2500000
                       0.0000000  0.0000000  0.0000000     0.2500000  0.2500000  0.2500000
                       0.0000000  0.0000000  0.0000000     0.2500000  0.2500000  0.2500000
                       0.0000000  0.0000000  0.0000000     0.2500000  0.2500000  0.2500000
                       0.0000000  0.0000000  0.0000000     0.2500000  0.2500000  0.2500000
                       0.0000000  0.0000000  0.0000000     0.2500000  0.2500000  0.2500000
                       0.0000000  0.0000000  0.0000000     0.2500000  0.2500000  0.2500000
                       0.0000000  0.0000000  0.0000000     0.2500000  0.2500000  0.2500000
                       0.0000000  0.0000000  0.0000000     0.2500000  0.2500000  0.2500000
                       0.0000000  0.0000000  0.0000000     0.2500000  0.2500000  0.2500000
                       0.0000000  0.0000000  0.0000000     0.2500000  0.2500000  0.2500000
                       0.0000000  0.0000000  0.0000000     0.2500000  0.2500000  0.2500000
                       0.0000000  0.0000000  0.0000000     0.2500000  0.2500000  0.2500000
           tolvrs      1.00000000E-09
            typat      1  1
              wtk        0.09375    0.09375    0.09375    0.18750    0.09375    0.09375
                         0.09375    0.18750    0.03125    0.03125
           xangst      6.6204263464E-29 -4.3332188043E-28  2.8049061224E-29
                       1.1035939751E+00  7.8035878346E-01  1.9114808358E+00
            xcart      1.2510792678E-28 -8.1885968140E-28  5.3005043997E-29
                       2.0854903748E+00  1.4746643861E+00  3.6121752879E+00
             xred      6.6270351977E-29 -1.3882136320E-28  4.3612503373E-29
                       2.5000000000E-01  2.5000000000E-01  2.5000000000E-01
            znucl       14.00000

- Timing analysis has been suppressed with timopt=0

 Suggested references for the acknowledgment of ABINIT usage.

 Calculation completed.
.Delivered   0 WARNINGs and   0 COMMENTs to log file.