.Version 8.7.6 of ABINIT

 ABINIT is a project of the Universite Catholique de Louvain,
 Corning Inc. and other collaborators, see ~abinit/doc/developers/contributors.txt .
 Please read ~abinit/doc/users/acknowledgments.html for suggested
 acknowledgments of the ABINIT effort.

.Starting date : Sun 18 Mar 2018.
- ( at 14h41 )

- input  file    -> /Users/gmatteo/git_repos/abitutorials/abitutorials/eph_al/flow_eph_al/w2/t0/run.abi
- output file    -> /Users/gmatteo/git_repos/abitutorials/abitutorials/eph_al/flow_eph_al/w2/t0/run.abo
- root for input  files -> /Users/gmatteo/git_repos/abitutorials/abitutorials/eph_al/flow_eph_al/w2/t0/indata/in
- root for output files -> /Users/gmatteo/git_repos/abitutorials/abitutorials/eph_al/flow_eph_al/w2/t0/outdata/out

 Symmetries : space group Fm -3 m (#225); Bravais cF (face-center cubic)
     intxc =       0    ionmov =       0      iscf =       7    lmnmax =       6
     lnmax =       6     mgfft =      15  mpssoang =       3    mqgrid =    3001
     natom =       1  nloc_mem =       1    nspden =       1   nspinor =       1
    nsppol =       1      nsym =      48    n1xccc =    2501    ntypat =       1
    occopt =       7   xclevel =       2
-    mband =           4        mffmem =           1         mkmem =          73
       mpw =         125          nfft =        3375          nkpt =         145
  Rough estimation (10% accuracy) of disk space for files :

------------- Echo of variables that govern the present computation ------------
-
- outvars: echo of selected default values
-   iomode0 =  0 , fftalg0 =112 , wfoptalg0 =  0
-
- outvars: echo of global parameters not present in the input file
-  max_nthreads =    0
-
 -outvars: echo values of preprocessed input variables --------
            acell      1.0000000000E+00  1.0000000000E+00  1.0000000000E+00 Bohr
              amu      2.69815390E+01
             ecut      8.00000000E+00 Hartree
       eph_fsewin      2.93994603E-02 Hartree
       eph_mustar      1.20000000E-01
   eph_ngqpt_fine        8    8    8
         ph_wstep      3.67493254E-06 Hartree
        ddb_ngqpt        4    4    4
        ph_ndivsm          10
        ph_nqpath          12
         ph_ngqpt       24   24   24
-          fftalg         112
           irdwfk           1
           istwfk        1    0    0    0    0    0    0    0    1    0
                         0    0    0    0    0    0    0    0    0    0
                         0    0    0    0    0    0    0    0    0    0
                         0    0    0    0    0    0    0    0    0    0
                         0    0    0    0    0    0    0    0    0    0
                       outvar_i_n : Printing only first  50 k-points.
              ixc          11
              kpt      0.00000000E+00  0.00000000E+00  0.00000000E+00
                       6.25000000E-02  0.00000000E+00  0.00000000E+00
                       1.25000000E-01  0.00000000E+00  0.00000000E+00
                       1.87500000E-01  0.00000000E+00  0.00000000E+00
                       2.50000000E-01  0.00000000E+00  0.00000000E+00
                       3.12500000E-01  0.00000000E+00  0.00000000E+00
                       3.75000000E-01  0.00000000E+00  0.00000000E+00
                       4.37500000E-01  0.00000000E+00  0.00000000E+00
                       5.00000000E-01  0.00000000E+00  0.00000000E+00
                       6.25000000E-02  6.25000000E-02  0.00000000E+00
                       1.25000000E-01  6.25000000E-02  0.00000000E+00
                       1.87500000E-01  6.25000000E-02  0.00000000E+00
                       2.50000000E-01  6.25000000E-02  0.00000000E+00
                       3.12500000E-01  6.25000000E-02  0.00000000E+00
                       3.75000000E-01  6.25000000E-02  0.00000000E+00
                       4.37500000E-01  6.25000000E-02  0.00000000E+00
                       5.00000000E-01  6.25000000E-02  0.00000000E+00
                      -4.37500000E-01  6.25000000E-02  0.00000000E+00
                      -3.75000000E-01  6.25000000E-02  0.00000000E+00
                      -3.12500000E-01  6.25000000E-02  0.00000000E+00
                      -2.50000000E-01  6.25000000E-02  0.00000000E+00
                      -1.87500000E-01  6.25000000E-02  0.00000000E+00
                      -1.25000000E-01  6.25000000E-02  0.00000000E+00
                      -6.25000000E-02  6.25000000E-02  0.00000000E+00
                       1.25000000E-01  1.25000000E-01  0.00000000E+00
                       1.87500000E-01  1.25000000E-01  0.00000000E+00
                       2.50000000E-01  1.25000000E-01  0.00000000E+00
                       3.12500000E-01  1.25000000E-01  0.00000000E+00
                       3.75000000E-01  1.25000000E-01  0.00000000E+00
                       4.37500000E-01  1.25000000E-01  0.00000000E+00
                       5.00000000E-01  1.25000000E-01  0.00000000E+00
                      -4.37500000E-01  1.25000000E-01  0.00000000E+00
                      -3.75000000E-01  1.25000000E-01  0.00000000E+00
                      -3.12500000E-01  1.25000000E-01  0.00000000E+00
                      -2.50000000E-01  1.25000000E-01  0.00000000E+00
                      -1.87500000E-01  1.25000000E-01  0.00000000E+00
                      -1.25000000E-01  1.25000000E-01  0.00000000E+00
                       1.87500000E-01  1.87500000E-01  0.00000000E+00
                       2.50000000E-01  1.87500000E-01  0.00000000E+00
                       3.12500000E-01  1.87500000E-01  0.00000000E+00
                       3.75000000E-01  1.87500000E-01  0.00000000E+00
                       4.37500000E-01  1.87500000E-01  0.00000000E+00
                       5.00000000E-01  1.87500000E-01  0.00000000E+00
                      -4.37500000E-01  1.87500000E-01  0.00000000E+00
                      -3.75000000E-01  1.87500000E-01  0.00000000E+00
                      -3.12500000E-01  1.87500000E-01  0.00000000E+00
                      -2.50000000E-01  1.87500000E-01  0.00000000E+00
                      -1.87500000E-01  1.87500000E-01  0.00000000E+00
                       2.50000000E-01  2.50000000E-01  0.00000000E+00
                       3.12500000E-01  2.50000000E-01  0.00000000E+00
                       outvar_i_n : Printing only first  50 k-points.
         kptrlatt       16    0    0      0   16    0      0    0   16
          kptrlen      8.48528137E+01
P           mkmem          73
            natom           1
            nband           4
            ngfft          15      15      15
             nkpt         145
             nsym          48
           ntypat           1
              occ      2.000000  1.000000  0.000000  0.000000
                       2.000000  1.000000  0.000000  0.000000
                       2.000000  1.000000  0.000000  0.000000
                       2.000000  1.000000  0.000000  0.000000
                       2.000000  1.000000  0.000000  0.000000
                       2.000000  1.000000  0.000000  0.000000
                       2.000000  1.000000  0.000000  0.000000
                       2.000000  1.000000  0.000000  0.000000
                       2.000000  1.000000  0.000000  0.000000
                       2.000000  1.000000  0.000000  0.000000
                       2.000000  1.000000  0.000000  0.000000
                       2.000000  1.000000  0.000000  0.000000
                       2.000000  1.000000  0.000000  0.000000
                       2.000000  1.000000  0.000000  0.000000
                       2.000000  1.000000  0.000000  0.000000
                       2.000000  1.000000  0.000000  0.000000
                       2.000000  1.000000  0.000000  0.000000
                       2.000000  1.000000  0.000000  0.000000
                       2.000000  1.000000  0.000000  0.000000
                       2.000000  1.000000  0.000000  0.000000
                       2.000000  1.000000  0.000000  0.000000
                       2.000000  1.000000  0.000000  0.000000
                       2.000000  1.000000  0.000000  0.000000
                       2.000000  1.000000  0.000000  0.000000
                       2.000000  1.000000  0.000000  0.000000
                       2.000000  1.000000  0.000000  0.000000
                       2.000000  1.000000  0.000000  0.000000
                       2.000000  1.000000  0.000000  0.000000
                       2.000000  1.000000  0.000000  0.000000
                       2.000000  1.000000  0.000000  0.000000
                       2.000000  1.000000  0.000000  0.000000
                       2.000000  1.000000  0.000000  0.000000
                       2.000000  1.000000  0.000000  0.000000
                       2.000000  1.000000  0.000000  0.000000
                       2.000000  1.000000  0.000000  0.000000
                       2.000000  1.000000  0.000000  0.000000
                       2.000000  1.000000  0.000000  0.000000
                       2.000000  1.000000  0.000000  0.000000
                       2.000000  1.000000  0.000000  0.000000
                       2.000000  1.000000  0.000000  0.000000
                       2.000000  1.000000  0.000000  0.000000
                       2.000000  1.000000  0.000000  0.000000
                       2.000000  1.000000  0.000000  0.000000
                       2.000000  1.000000  0.000000  0.000000
                       2.000000  1.000000  0.000000  0.000000
                       2.000000  1.000000  0.000000  0.000000
                       2.000000  1.000000  0.000000  0.000000
                       2.000000  1.000000  0.000000  0.000000
                       2.000000  1.000000  0.000000  0.000000
                       2.000000  1.000000  0.000000  0.000000
                       prtocc : prtvol=0, do not print more k-points.
           occopt           7
        optdriver           7
           prtden           0
            prtwf          -1
            rprim      0.0000000000E+00  3.7500000000E+00  3.7500000000E+00
                       3.7500000000E+00  0.0000000000E+00  3.7500000000E+00
                       3.7500000000E+00  3.7500000000E+00  0.0000000000E+00
          spgroup         225
           symrel      1  0  0   0  1  0   0  0  1      -1  0  0   0 -1  0   0  0 -1
                       0 -1  1   0 -1  0   1 -1  0       0  1 -1   0  1  0  -1  1  0
                      -1  0  0  -1  0  1  -1  1  0       1  0  0   1  0 -1   1 -1  0
                       0  1 -1   1  0 -1   0  0 -1       0 -1  1  -1  0  1   0  0  1
                      -1  0  0  -1  1  0  -1  0  1       1  0  0   1 -1  0   1  0 -1
                       0 -1  1   1 -1  0   0 -1  0       0  1 -1  -1  1  0   0  1  0
                       1  0  0   0  0  1   0  1  0      -1  0  0   0  0 -1   0 -1  0
                       0  1 -1   0  0 -1   1  0 -1       0 -1  1   0  0  1  -1  0  1
                      -1  0  1  -1  1  0  -1  0  0       1  0 -1   1 -1  0   1  0  0
                       0 -1  0   1 -1  0   0 -1  1       0  1  0  -1  1  0   0  1 -1
                       1  0 -1   0  0 -1   0  1 -1      -1  0  1   0  0  1   0 -1  1
[...]
 54)   2.50000000E-01  2.50000000E-01 -2.50000000E-01
 55)   5.00000000E-01  2.50000000E-01 -2.50000000E-01
 56)  -2.50000000E-01  2.50000000E-01 -2.50000000E-01
 57)   0.00000000E+00  5.00000000E-01 -2.50000000E-01
 58)   2.50000000E-01  5.00000000E-01 -2.50000000E-01
 59)   5.00000000E-01  5.00000000E-01 -2.50000000E-01
 60)  -2.50000000E-01  5.00000000E-01 -2.50000000E-01
 61)   0.00000000E+00 -2.50000000E-01 -2.50000000E-01
 62)   2.50000000E-01 -2.50000000E-01 -2.50000000E-01
 63)   5.00000000E-01 -2.50000000E-01 -2.50000000E-01
 64)  -2.50000000E-01 -2.50000000E-01 -2.50000000E-01

 The interatomic forces have been obtained
 Average speed of sound partial sums:     0.2157622550E-02 (at units)
-                                   =           4.7202 [km/s]

 Debye frequency from partial sums:     0.1779991256E-02 (Ha)
-                                 =     0.1171177985E+02 (THz)
-Debye temperature from partial sums:     0.5620761159E+03 (K)

- Writing phonon DOS to file: /Users/gmatteo/git_repos/abitutorials/abitutorials/eph_al/flow_eph_al/w2/t0/outdata/out_PHDOS
qpoint: [ 0.0000E+00,  0.0000E+00,  0.0000E+00] is present in the DVDB file
 The list of irreducible perturbations for this q vector is:
    1)  idir= 1, ipert=   1, type=independent, found=Yes
    2)  idir= 2, ipert=   1, type=symmetric, found=No
    3)  idir= 3, ipert=   1, type=symmetric, found=No

qpoint: [ 2.5000E-01,  0.0000E+00,  0.0000E+00] is present in the DVDB file
 The list of irreducible perturbations for this q vector is:
    1)  idir= 1, ipert=   1, type=independent, found=Yes
    2)  idir= 2, ipert=   1, type=independent, found=Yes
    3)  idir= 3, ipert=   1, type=symmetric, found=No

[...]

qpoint: [ 5.0000E-01,  2.5000E-01,  0.0000E+00] is present in the DVDB file
 The list of irreducible perturbations for this q vector is:
    1)  idir= 1, ipert=   1, type=independent, found=Yes
    2)  idir= 2, ipert=   1, type=independent, found=Yes
    3)  idir= 3, ipert=   1, type=independent, found=Yes

qpoint: [-2.5000E-01,  2.5000E-01,  0.0000E+00] is present in the DVDB file
 The list of irreducible perturbations for this q vector is:
    1)  idir= 1, ipert=   1, type=independent, found=Yes
    2)  idir= 2, ipert=   1, type=symmetric, found=No
    3)  idir= 3, ipert=   1, type=independent, found=Yes

qpoint: [ 5.0000E-01,  5.0000E-01,  0.0000E+00] is present in the DVDB file
 The list of irreducible perturbations for this q vector is:
    1)  idir= 1, ipert=   1, type=independent, found=Yes
    2)  idir= 2, ipert=   1, type=symmetric, found=No
    3)  idir= 3, ipert=   1, type=symmetric, found=No

qpoint: [-2.5000E-01,  5.0000E-01,  2.5000E-01] is present in the DVDB file
 The list of irreducible perturbations for this q vector is:
    1)  idir= 1, ipert=   1, type=independent, found=Yes
    2)  idir= 2, ipert=   1, type=independent, found=Yes
    3)  idir= 3, ipert=   1, type=symmetric, found=No

All the independent perturbations are available

--- Pseudopotential description ------------------------------------------------
- pspini: atom type   1  psp file is /Users/gmatteo/git_repos/abipy/abipy/data/pseudos/Al.oncvpsp
- pspatm: opening atomic psp file    /Users/gmatteo/git_repos/abipy/abipy/data/pseudos/Al.oncvpsp
- Al    ONCVPSP  r_core=  1.77  1.77  1.71
- 13.00000   3.00000    150121                znucl, zion, pspdat
    8   11    2    4       600   0.00000      pspcod,pspxc,lmax,lloc,mmax,r2well
    5.99000000000000    0.65000000000000    0.00000000000000   rchrg,fchrg,qchrg
     nproj     2     2     2
     extension_switch     0
  pspatm : epsatm=    5.28546466
         --- l  ekb(1:nproj) -->
             0    5.189455    0.741531
             1    7.659436    0.819933
             2  -21.179473   -1.097800
 pspatm: atomic psp has been read  and splines computed

   1.58563940E+01                                ecore*ucvol(ha*bohr**3)

 Fermi level:   7.20670882E+00 [eV]
 Total electron DOS in states/eV :   3.19302368E-01
- Writing electron DOS to file: /Users/gmatteo/git_repos/abitutorials/abitutorials/eph_al/flow_eph_al/w2/t0/outdata/out_EDOS

 q-point =    0.000000E+00    0.000000E+00    0.000000E+00
 Mode number    Frequency (Ha)  Linewidth (Ha)  Lambda(q,n)
    1        0.000000E+00    0.000000E+00    0.000000E+00
    2        0.000000E+00    0.000000E+00    0.000000E+00
    3        0.000000E+00    0.000000E+00    0.000000E+00

[...]

 q-point =   -2.500000E-01    5.000000E-01    2.500000E-01
 Mode number    Frequency (Ha)  Linewidth (Ha)  Lambda(q,n)
    1        1.115749E-03    1.732157E-06    5.097428E-02
    2        1.342052E-03    5.223707E-06    1.062521E-01
    3        1.342052E-03    5.223707E-06    1.062521E-01

 lambda=   0.2481

== END DATASET(S) ==============================================================

 -outvars: echo values of variables after computation  --------
            acell      1.0000000000E+00  1.0000000000E+00  1.0000000000E+00 Bohr
              amu      2.69815390E+01
             ecut      8.00000000E+00 Hartree
       eph_fsewin      2.93994603E-02 Hartree
       eph_mustar      1.20000000E-01
   eph_ngqpt_fine        8    8    8
         ph_wstep      3.67493254E-06 Hartree
        ddb_ngqpt        4    4    4
        ph_ndivsm          10
        ph_nqpath          12
         ph_ngqpt       24   24   24
           etotal      0.0000000000E+00
            fcart      0.0000000000E+00  0.0000000000E+00  0.0000000000E+00
-          fftalg         112
           irdwfk           1
           istwfk        1    0    0    0    0    0    0    0    1    0
                         0    0    0    0    0    0    0    0    0    0
                         0    0    0    0    0    0    0    0    0    0
                         0    0    0    0    0    0    0    0    0    0
                         0    0    0    0    0    0    0    0    0    0
                       outvar_i_n : Printing only first  50 k-points.
              ixc          11
              kpt      0.00000000E+00  0.00000000E+00  0.00000000E+00
                       6.25000000E-02  0.00000000E+00  0.00000000E+00
                       1.25000000E-01  0.00000000E+00  0.00000000E+00
                       1.87500000E-01  0.00000000E+00  0.00000000E+00
                       2.50000000E-01  0.00000000E+00  0.00000000E+00
                       3.12500000E-01  0.00000000E+00  0.00000000E+00
                       3.75000000E-01  0.00000000E+00  0.00000000E+00
                       4.37500000E-01  0.00000000E+00  0.00000000E+00
                       5.00000000E-01  0.00000000E+00  0.00000000E+00
                       6.25000000E-02  6.25000000E-02  0.00000000E+00
                       1.25000000E-01  6.25000000E-02  0.00000000E+00
                       1.87500000E-01  6.25000000E-02  0.00000000E+00
                       2.50000000E-01  6.25000000E-02  0.00000000E+00
                       3.12500000E-01  6.25000000E-02  0.00000000E+00
                       3.75000000E-01  6.25000000E-02  0.00000000E+00
                       4.37500000E-01  6.25000000E-02  0.00000000E+00
                       5.00000000E-01  6.25000000E-02  0.00000000E+00
                      -4.37500000E-01  6.25000000E-02  0.00000000E+00
                      -3.75000000E-01  6.25000000E-02  0.00000000E+00
                      -3.12500000E-01  6.25000000E-02  0.00000000E+00
                      -2.50000000E-01  6.25000000E-02  0.00000000E+00
                      -1.87500000E-01  6.25000000E-02  0.00000000E+00
                      -1.25000000E-01  6.25000000E-02  0.00000000E+00
                      -6.25000000E-02  6.25000000E-02  0.00000000E+00
                       1.25000000E-01  1.25000000E-01  0.00000000E+00
                       1.87500000E-01  1.25000000E-01  0.00000000E+00
                       2.50000000E-01  1.25000000E-01  0.00000000E+00
                       3.12500000E-01  1.25000000E-01  0.00000000E+00
                       3.75000000E-01  1.25000000E-01  0.00000000E+00
                       4.37500000E-01  1.25000000E-01  0.00000000E+00
                       5.00000000E-01  1.25000000E-01  0.00000000E+00
                      -4.37500000E-01  1.25000000E-01  0.00000000E+00
                      -3.75000000E-01  1.25000000E-01  0.00000000E+00
                      -3.12500000E-01  1.25000000E-01  0.00000000E+00
                      -2.50000000E-01  1.25000000E-01  0.00000000E+00
                      -1.87500000E-01  1.25000000E-01  0.00000000E+00
                      -1.25000000E-01  1.25000000E-01  0.00000000E+00
                       1.87500000E-01  1.87500000E-01  0.00000000E+00
                       2.50000000E-01  1.87500000E-01  0.00000000E+00
                       3.12500000E-01  1.87500000E-01  0.00000000E+00
                       3.75000000E-01  1.87500000E-01  0.00000000E+00
                       4.37500000E-01  1.87500000E-01  0.00000000E+00
                       5.00000000E-01  1.87500000E-01  0.00000000E+00
                      -4.37500000E-01  1.87500000E-01  0.00000000E+00
                      -3.75000000E-01  1.87500000E-01  0.00000000E+00
                      -3.12500000E-01  1.87500000E-01  0.00000000E+00
                      -2.50000000E-01  1.87500000E-01  0.00000000E+00
                      -1.87500000E-01  1.87500000E-01  0.00000000E+00
                       2.50000000E-01  2.50000000E-01  0.00000000E+00
                       3.12500000E-01  2.50000000E-01  0.00000000E+00
                       outvar_i_n : Printing only first  50 k-points.
         kptrlatt       16    0    0      0   16    0      0    0   16
          kptrlen      8.48528137E+01
P           mkmem          73
            natom           1
            nband           4
            ngfft          15      15      15
             nkpt         145
             nsym          48
           ntypat           1
              occ      2.000000  1.000000  0.000000  0.000000
                       2.000000  1.000000  0.000000  0.000000
                       2.000000  1.000000  0.000000  0.000000
                       2.000000  1.000000  0.000000  0.000000
                       2.000000  1.000000  0.000000  0.000000
                       2.000000  1.000000  0.000000  0.000000
                       2.000000  1.000000  0.000000  0.000000
                       2.000000  1.000000  0.000000  0.000000
                       2.000000  1.000000  0.000000  0.000000
                       2.000000  1.000000  0.000000  0.000000
                       2.000000  1.000000  0.000000  0.000000
                       2.000000  1.000000  0.000000  0.000000
                       2.000000  1.000000  0.000000  0.000000
                       2.000000  1.000000  0.000000  0.000000
                       2.000000  1.000000  0.000000  0.000000
                       2.000000  1.000000  0.000000  0.000000
                       2.000000  1.000000  0.000000  0.000000
                       2.000000  1.000000  0.000000  0.000000
                       2.000000  1.000000  0.000000  0.000000
                       2.000000  1.000000  0.000000  0.000000
                       2.000000  1.000000  0.000000  0.000000
                       2.000000  1.000000  0.000000  0.000000
                       2.000000  1.000000  0.000000  0.000000
                       2.000000  1.000000  0.000000  0.000000
                       2.000000  1.000000  0.000000  0.000000
                       2.000000  1.000000  0.000000  0.000000
                       2.000000  1.000000  0.000000  0.000000
                       2.000000  1.000000  0.000000  0.000000
                       2.000000  1.000000  0.000000  0.000000
                       2.000000  1.000000  0.000000  0.000000
                       2.000000  1.000000  0.000000  0.000000
                       2.000000  1.000000  0.000000  0.000000
                       2.000000  1.000000  0.000000  0.000000
                       2.000000  1.000000  0.000000  0.000000
                       2.000000  1.000000  0.000000  0.000000
                       2.000000  1.000000  0.000000  0.000000
                       2.000000  1.000000  0.000000  0.000000
                       2.000000  1.000000  0.000000  0.000000
                       2.000000  1.000000  0.000000  0.000000
                       2.000000  1.000000  0.000000  0.000000
                       2.000000  1.000000  0.000000  0.000000
                       2.000000  1.000000  0.000000  0.000000
                       2.000000  1.000000  0.000000  0.000000
                       2.000000  1.000000  0.000000  0.000000
                       2.000000  1.000000  0.000000  0.000000
                       2.000000  1.000000  0.000000  0.000000
                       2.000000  1.000000  0.000000  0.000000
                       2.000000  1.000000  0.000000  0.000000
                       2.000000  1.000000  0.000000  0.000000
                       2.000000  1.000000  0.000000  0.000000
                       prtocc : prtvol=0, do not print more k-points.
           occopt           7
        optdriver           7
           prtden           0
            prtwf          -1
            rprim      0.0000000000E+00  3.7500000000E+00  3.7500000000E+00
                       3.7500000000E+00  0.0000000000E+00  3.7500000000E+00
                       3.7500000000E+00  3.7500000000E+00  0.0000000000E+00
          spgroup         225
           strten      0.0000000000E+00  0.0000000000E+00  0.0000000000E+00
                       0.0000000000E+00  0.0000000000E+00  0.0000000000E+00
           symrel      1  0  0   0  1  0   0  0  1      -1  0  0   0 -1  0   0  0 -1
                       0 -1  1   0 -1  0   1 -1  0       0  1 -1   0  1  0  -1  1  0
                      -1  0  0  -1  0  1  -1  1  0       1  0  0   1  0 -1   1 -1  0
                       0  1 -1   1  0 -1   0  0 -1       0 -1  1  -1  0  1   0  0  1
                      -1  0  0  -1  1  0  -1  0  1       1  0  0   1 -1  0   1  0 -1
                       0 -1  1   1 -1  0   0 -1  0       0  1 -1  -1  1  0   0  1  0
                       1  0  0   0  0  1   0  1  0      -1  0  0   0  0 -1   0 -1  0
                       0  1 -1   0  0 -1   1  0 -1       0 -1  1   0  0  1  -1  0  1
                      -1  0  1  -1  1  0  -1  0  0       1  0 -1   1 -1  0   1  0  0
                       0 -1  0   1 -1  0   0 -1  1       0  1  0  -1  1  0   0  1 -1
                       1  0 -1   0  0 -1   0  1 -1      -1  0  1   0  0  1   0 -1  1
                       0  1  0   0  0  1   1  0  0       0 -1  0   0  0 -1  -1  0  0
                       1  0 -1   0  1 -1   0  0 -1      -1  0  1   0 -1  1   0  0  1
                       0 -1  0   0 -1  1   1 -1  0       0  1  0   0  1 -1  -1  1  0
                      -1  0  1  -1  0  0  -1  1  0       1  0 -1   1  0  0   1 -1  0
                       0  1  0   1  0  0   0  0  1       0 -1  0  -1  0  0   0  0 -1
                       0  0 -1   0  1 -1   1  0 -1       0  0  1   0 -1  1  -1  0  1
                       1 -1  0   0 -1  1   0 -1  0      -1  1  0   0  1 -1   0  1  0
                       0  0  1   1  0  0   0  1  0       0  0 -1  -1  0  0   0 -1  0
                      -1  1  0  -1  0  0  -1  0  1       1 -1  0   1  0  0   1  0 -1
                       0  0  1   0  1  0   1  0  0       0  0 -1   0 -1  0  -1  0  0
                       1 -1  0   0 -1  0   0 -1  1      -1  1  0   0  1  0   0  1 -1
                       0  0 -1   1  0 -1   0  1 -1       0  0  1  -1  0  1   0 -1  1
                      -1  1  0  -1  0  1  -1  0  0       1 -1  0   1  0 -1   1  0  0
           tolvrs      1.00000000E-07
           tsmear      4.00000000E-02 Hartree
            typat      1
              wtk        0.00024    0.00195    0.00195    0.00195    0.00195    0.00195
                         0.00195    0.00195    0.00098    0.00146    0.00586    0.00586
                         0.00586    0.00586    0.00586    0.00586    0.00586    0.00586
                         0.00586    0.00586    0.00586    0.00586    0.00586    0.00293
                         0.00146    0.00586    0.00586    0.00586    0.00586    0.00586
                         0.00586    0.00586    0.00586    0.00586    0.00586    0.00586
                         0.00293    0.00146    0.00586    0.00586    0.00586    0.00586
                         0.00586    0.00586    0.00586    0.00586    0.00586    0.00293
                         0.00146    0.00586
                       outvars : Printing only first  50 k-points.
            znucl       13.00000

- Timing analysis has been suppressed with timopt=0

 Suggested references for the acknowledgment of ABINIT usage.

 Calculation completed.
.Delivered   0 WARNINGs and   0 COMMENTs to log file.