.Version 8.9.3 of ABINIT

 ABINIT is a project of the Universite Catholique de Louvain,
 Corning Inc. and other collaborators, see ~abinit/doc/developers/contributors.txt .
 acknowledgments of the ABINIT effort.

.Starting date : Mon 13 Aug 2018.
- ( at 17h46 )

- input  file    -> /Users/gmatteo/git_repos/abitutorials/abitutorials/elastic/flow_elastic/w0/t4/run.abi
- output file    -> /Users/gmatteo/git_repos/abitutorials/abitutorials/elastic/flow_elastic/w0/t4/run.abo
- root for input  files -> /Users/gmatteo/git_repos/abitutorials/abitutorials/elastic/flow_elastic/w0/t4/indata/in
- root for output files -> /Users/gmatteo/git_repos/abitutorials/abitutorials/elastic/flow_elastic/w0/t4/outdata/out

 Symmetries : space group P6_3 m c (#186); Bravais hP (primitive hexag.)
     intxc =       0      iscf =       7    lmnmax =       2     lnmax =       2
     mgfft =      30  mpssoang =       3    mqgrid =    3001     natom =       4
  nloc_mem =       1    nspden =       1   nspinor =       1    nsppol =       1
      nsym =      12    n1xccc =    2501    ntypat =       2    occopt =       1
   xclevel =       1
-    mband =           8        mffmem =           1         mkmem =          16
-   mkqmem =          16        mk1mem =          16           mpw =         428
      nfft =        9720          nkpt =          32
  Rough estimation (10% accuracy) of disk space for files :

------------- Echo of variables that govern the present computation ------------
-
- outvars: echo of selected default values
-   iomode0 =  0 , fftalg0 =112 , wfoptalg0 =  0
-
- outvars: echo of global parameters not present in the input file
-  max_nthreads =    0
-
 -outvars: echo values of preprocessed input variables --------
            acell      1.0000000000E+00  1.0000000000E+00  1.0000000000E+00 Bohr
              amu      2.69815390E+01  7.49215900E+01
           diemac      9.00000000E+00
             ecut      6.00000000E+00 Hartree
           ecutsm      5.00000000E-01 Hartree
-          fftalg         112
           irdddk           1
           irdwfk           1
              kpt      0.00000000E+00  0.00000000E+00  1.25000000E-01
                       2.50000000E-01  0.00000000E+00  1.25000000E-01
                       5.00000000E-01  0.00000000E+00  1.25000000E-01
                      -2.50000000E-01  0.00000000E+00  1.25000000E-01
                       0.00000000E+00  2.50000000E-01  1.25000000E-01
                       2.50000000E-01  2.50000000E-01  1.25000000E-01
                       5.00000000E-01  2.50000000E-01  1.25000000E-01
                      -2.50000000E-01  2.50000000E-01  1.25000000E-01
                       0.00000000E+00  5.00000000E-01  1.25000000E-01
                       2.50000000E-01  5.00000000E-01  1.25000000E-01
                       5.00000000E-01  5.00000000E-01  1.25000000E-01
                      -2.50000000E-01  5.00000000E-01  1.25000000E-01
                       0.00000000E+00 -2.50000000E-01  1.25000000E-01
                       2.50000000E-01 -2.50000000E-01  1.25000000E-01
                       5.00000000E-01 -2.50000000E-01  1.25000000E-01
                      -2.50000000E-01 -2.50000000E-01  1.25000000E-01
                       0.00000000E+00  0.00000000E+00  3.75000000E-01
                       2.50000000E-01  0.00000000E+00  3.75000000E-01
                       5.00000000E-01  0.00000000E+00  3.75000000E-01
                      -2.50000000E-01  0.00000000E+00  3.75000000E-01
                       0.00000000E+00  2.50000000E-01  3.75000000E-01
                       2.50000000E-01  2.50000000E-01  3.75000000E-01
                       5.00000000E-01  2.50000000E-01  3.75000000E-01
                      -2.50000000E-01  2.50000000E-01  3.75000000E-01
                       0.00000000E+00  5.00000000E-01  3.75000000E-01
                       2.50000000E-01  5.00000000E-01  3.75000000E-01
                       5.00000000E-01  5.00000000E-01  3.75000000E-01
                      -2.50000000E-01  5.00000000E-01  3.75000000E-01
                       0.00000000E+00 -2.50000000E-01  3.75000000E-01
                       2.50000000E-01 -2.50000000E-01  3.75000000E-01
                       5.00000000E-01 -2.50000000E-01  3.75000000E-01
                      -2.50000000E-01 -2.50000000E-01  3.75000000E-01
           kptopt           2
         kptrlatt        4    0    0      0    4    0      0    0    4
          kptrlen      3.01558593E+01
P           mkmem          16
P          mkqmem          16
P          mk1mem          16
            natom           4
            nband           8
            ngfft          18      18      30
             nkpt          32
             nqpt           1
            nstep          40
             nsym          12
           ntypat           2
              occ      2.000000  2.000000  2.000000  2.000000  2.000000  2.000000
                       2.000000  2.000000
        optdriver           1
            rfdir           1       0       0
           rfphon           1
            rprim      6.5289350475E+00  3.7694824072E+00  0.0000000000E+00
                      -6.5289350475E+00  3.7694824072E+00  0.0000000000E+00
                       0.0000000000E+00  0.0000000000E+00  1.2277795374E+01
           shiftk      0.00000000E+00  0.00000000E+00  5.00000000E-01
          spgroup         186
           symrel      1  0  0   0  1  0   0  0  1       0  1  0   1  0  0   0  0  1
                       1  1  0  -1  0  0   0  0  1      -1  0  0   1  1  0   0  0  1
                       0  1  0  -1 -1  0   0  0  1      -1 -1  0   0  1  0   0  0  1
                      -1  0  0   0 -1  0   0  0  1       0 -1  0  -1  0  0   0  0  1
                      -1 -1  0   1  0  0   0  0  1       1  0  0  -1 -1  0   0  0  1
                       0 -1  0   1  1  0   0  0  1       1  1  0   0 -1  0   0  0  1
            tnons      0.0000000  0.0000000  0.0000000     0.0000000  0.0000000  0.5000000
                       0.0000000  0.0000000  0.5000000    -0.0000000  0.0000000  0.0000000
                       0.0000000  0.0000000  0.0000000     0.0000000 -0.0000000  0.5000000
                       0.0000000  0.0000000  0.5000000     0.0000000  0.0000000  0.0000000
                      -0.0000000  0.0000000  0.0000000     0.0000000  0.0000000  0.5000000
                       0.0000000 -0.0000000  0.5000000     0.0000000  0.0000000  0.0000000
           tolvrs      1.00000000E-12
            typat      1  1  2  2
              wtk        0.03125    0.03125    0.03125    0.03125    0.03125    0.03125
                         0.03125    0.03125    0.03125    0.03125    0.03125    0.03125
                         0.03125    0.03125    0.03125    0.03125    0.03125    0.03125
                         0.03125    0.03125    0.03125    0.03125    0.03125    0.03125
                         0.03125    0.03125    0.03125    0.03125    0.03125    0.03125
                         0.03125    0.03125
           xangst     -1.1516545414E+00  1.9947241781E+00  0.0000000000E+00
                       1.1516545414E+00  1.9947241781E+00  3.2485647418E+00
                      -1.1516545414E+00  1.9947241781E+00  2.4434786834E+00
                       1.1516545414E+00  1.9947241781E+00  5.6920434252E+00
            xcart     -2.1763116829E+00  3.7694824072E+00  0.0000000000E+00
                       2.1763116829E+00  3.7694824072E+00  6.1388976870E+00
                      -2.1763116829E+00  3.7694824072E+00  4.6175055231E+00
                       2.1763116829E+00  3.7694824072E+00  1.0756403210E+01
             xred      3.3333333330E-01  6.6666666670E-01  0.0000000000E+00
                       6.6666666670E-01  3.3333333330E-01  5.0000000000E-01
                       3.3333333330E-01  6.6666666670E-01  3.7608588370E-01
                       6.6666666670E-01  3.3333333330E-01  8.7608588370E-01
            znucl       13.00000   33.00000

 chkinp: Checking input parameters for consistency.

== DATASET  1 ==================================================================
-   nproc =    2

 Real(R)+Recip(G) space primitive vectors, cartesian coordinates (Bohr,Bohr^-1):
 R(1)=  6.5289350  3.7694824  0.0000000  G(1)=  0.0765822  0.1326442  0.0000000
 R(2)= -6.5289350  3.7694824  0.0000000  G(2)= -0.0765822  0.1326442  0.0000000
 R(3)=  0.0000000  0.0000000 12.2777954  G(3)=  0.0000000  0.0000000  0.0814478
 Unit cell volume ucvol=  6.0433042E+02 bohr^3
 Angles (23,13,12)=  9.00000000E+01  9.00000000E+01  1.20000000E+02 degrees
 setup1 : take into account q-point for computing boxcut.

 getcut: wavevector=  0.0000  0.0000  0.0000  ngfft=  18  18  30
         ecut(hartree)=      6.000   => boxcut(ratio)=   2.16976

--- Pseudopotential description ------------------------------------------------
- pspini: atom type   1  psp file is /Users/gmatteo/git_repos/abipy/abipy/data/pseudos/13al.pspnc
- pspatm: opening atomic psp file    /Users/gmatteo/git_repos/abipy/abipy/data/pseudos/13al.pspnc
-  Troullier-Martins psp for element  Al        Thu Oct 27 17:31:05 EDT 1994
- 13.00000   3.00000    940714                znucl, zion, pspdat
    1    1    2    2      2001   0.00000      pspcod,pspxc,lmax,lloc,mmax,r2well
    0   4.657  11.889    1   2.2761078        l,e99.0,e99.9,nproj,rcpsp
   0.00000000   0.00000000   0.00000000   0.00000000     rms, ekb1, ekb2, epsatm
    1   1.829   2.761    1   2.2761078        l,e99.0,e99.9,nproj,rcpsp
   0.00000000   0.00000000   0.00000000   0.00000000     rms, ekb1, ekb2, epsatm
    2   0.000   0.000    0   2.2761078        l,e99.0,e99.9,nproj,rcpsp
   0.00000000   0.00000000   0.00000000   0.00000000     rms, ekb1, ekb2, epsatm
    2.09673076353074    0.12648111154518    1.01742091001718   rchrg,fchrg,qchrg
  pspatm : epsatm=    0.22155260
         --- l  ekb(1:nproj) -->
             0    2.540658
             1    1.353815
 pspatm: atomic psp has been read  and splines computed

- pspini: atom type   2  psp file is /Users/gmatteo/git_repos/abipy/abipy/data/pseudos/33as.pspnc
- pspatm: opening atomic psp file    /Users/gmatteo/git_repos/abipy/abipy/data/pseudos/33as.pspnc
-  Troullier-Martins psp for element  As        Thu Oct 27 17:37:14 EDT 1994
- 33.00000   5.00000    940714                znucl, zion, pspdat
    1    1    1    1      2001   0.00000      pspcod,pspxc,lmax,lloc,mmax,r2well
    0   4.772  10.829    1   2.5306160        l,e99.0,e99.9,nproj,rcpsp
   0.00000000   0.00000000   0.00000000   0.00000000     rms, ekb1, ekb2, epsatm
    1   2.745   5.580    0   2.5306160        l,e99.0,e99.9,nproj,rcpsp
   0.00000000   0.00000000   0.00000000   0.00000000     rms, ekb1, ekb2, epsatm
    2.05731715564010    0.36322996461007    2.76014815959125   rchrg,fchrg,qchrg
  pspatm : epsatm=   27.20579911
         --- l  ekb(1:nproj) -->
             0    0.838751
 pspatm: atomic psp has been read  and splines computed

   8.77675255E+02                                ecore*ucvol(ha*bohr**3)

-inwffil : will read wavefunctions from disk file /Users/gmatteo/git_repos/abitutorials/abitutorials/elastic/flow_elastic/w0/t4/indata/in_WFK

 ==>  initialize data related to q vector <==

 The list of irreducible perturbations for this q vector is:
    1)    idir= 1    ipert=   1

 Perturbation wavevector (in red.coord.)   0.000000  0.000000  0.000000
 Perturbation : displacement of atom   1   along direction   1
 The set of symmetries contains only one element for this perturbation.
 symkpt : not enough symmetry to change the number of k points.

-inwffil : will read wavefunctions from disk file /Users/gmatteo/git_repos/abitutorials/abitutorials/elastic/flow_elastic/w0/t4/indata/in_WFK

 Initialisation of the first-order wave-functions :
  ireadwf=   0

     iter   2DEtotal(Ha)        deltaE(Ha) residm    vres2
-ETOT  1   8.1326999052542     -1.771E+01 1.218E-02 9.428E+02
 ETOT  2   5.4887482204494     -2.644E+00 1.138E-03 1.071E+01
 ETOT  3   5.4519653253524     -3.678E-02 4.557E-05 4.774E-01
 ETOT  4   5.4508848927289     -1.080E-03 3.565E-07 1.196E-02
 ETOT  5   5.4508669528710     -1.794E-05 2.246E-08 7.318E-05
 ETOT  6   5.4508668660268     -8.684E-08 1.625E-10 1.450E-06
 ETOT  7   5.4508668639949     -2.032E-09 3.817E-12 1.109E-08
 ETOT  8   5.4508668639769     -1.805E-11 9.363E-14 1.910E-10
 ETOT  9   5.4508668639765     -3.411E-13 2.127E-15 1.993E-11
 ETOT 10   5.4508668639765     -5.329E-14 5.246E-17 6.260E-13

 At SCF step   10       vres2   =  6.26E-13 < tolvrs=  1.00E-12 =>converged.
-open ddk wf file :/Users/gmatteo/git_repos/abitutorials/abitutorials/elastic/flow_elastic/w0/t4/indata/in_1WF13
-open ddk wf file :/Users/gmatteo/git_repos/abitutorials/abitutorials/elastic/flow_elastic/w0/t4/indata/in_1WF14
-open ddk wf file :/Users/gmatteo/git_repos/abitutorials/abitutorials/elastic/flow_elastic/w0/t4/indata/in_1WF15

 ----iterations are completed or convergence reached----

 Mean square residual over all n,k,spin=   4.0327E-18; max=  5.2465E-17

 Thirteen components of 2nd-order total energy (hartree) are
 1,2,3: 0th-order hamiltonian combined with 1st-order wavefunctions
     kin0=   2.45700251E+01 eigvalue=   6.25955599E-01  local=  -1.66521317E+01
 4,5,6: 1st-order hamiltonian combined with 1st and 0th-order wfs
 loc psp =  -2.39294946E+00  Hartree=   4.31377792E+00     xc=  -1.81281933E+00
 note that "loc psp" includes a xc core correction that could be resolved
 7,8,9: eventually, occupation + non-local contributions
    edocc=   0.00000000E+00     enl0=   9.34347017E+00   enl1=  -3.83836059E+01
 1-9 gives the relaxation energy (to be shifted if some occ is /=2.0)
   erelax=  -2.03882777E+01
 10,11,12 Non-relaxation  contributions : frozen-wavefunctions and Ewald
 fr.local=  -1.29074692E+01 fr.nonlo=   2.76025781E+01  Ewald=   1.21192482E+01
 13,14 Frozen wf xc core corrections (1) and (2)
 frxc 1  =  -4.77204100E+00  frxc 2 =   3.79682843E+00
 Resulting in :
 2DEtotal=    0.5450866864E+01 Ha. Also 2DEtotal=    0.148325630605E+03 eV
    (2DErelax=   -2.0388277690E+01 Ha. 2DEnonrelax=    2.5839144554E+01 Ha)
    (  non-var. 2DEtotal :    5.4508668591E+00 Ha)

 ---- first-order wavefunction calculations are completed ----

 ==> Compute Derivative Database <==

  2nd-order matrix (non-cartesian coordinates, masses not included,
   asr not included )
     j1       j2             matrix element
  dir pert dir pert     real part     imaginary part

   1    1   1    1         5.4508668591         0.0000000000
   1    1   2    1        -2.7254334299         0.0000000000
   1    1   3    1        -0.0000001249         0.0000000000
   1    1   1    2         0.1139932944        -0.0000000000
   1    1   2    2        -0.0569966470         0.0000000000
   1    1   3    2         0.0000001245        -0.0000000000
   1    1   1    3        -0.3164361303         0.0000000000
   1    1   2    3         0.1582180640        -0.0000000000
   1    1   3    3         0.0000002737        -0.0000000000
   1    1   1    4        -5.2484226113         0.0000000000
   1    1   2    4         2.6242113063        -0.0000000000
   1    1   3    4        -0.0000002695         0.0000000000
   1    1   1    6        -7.3573153085         0.0000000000
   1    1   2    6        -0.0000000025         0.0000000000
   1    1   3    6         0.0000000014         0.0000000000

[...]

  Dynamical matrix, in cartesian coordinates,
   if specified in the inputs, asr has been imposed
     j1       j2             matrix element
  dir pert dir pert     real part    imaginary part

[...]

  Effective charges, in cartesian coordinates,
  (from phonon response)
   if specified in the inputs, asr has been imposed
     j1       j2             matrix element
  dir pert dir pert     real part    imaginary part

[...]

   3    6   2    4         0.0000000000         0.0000000000

  Phonon wavevector (reduced coordinates) :  0.00000  0.00000  0.00000
 Phonon energies in Hartree :
   0.000000E+00  0.000000E+00  0.000000E+00  0.000000E+00  0.000000E+00
   0.000000E+00  0.000000E+00  0.000000E+00  1.381715E-03  1.381715E-03
   1.410919E-03  1.410919E-03
 Phonon frequencies in cm-1    :
-  0.000000E+00  0.000000E+00  0.000000E+00  0.000000E+00  0.000000E+00
-  0.000000E+00  0.000000E+00  0.000000E+00  3.032513E+02  3.032513E+02
-  3.096609E+02  3.096609E+02
 chkph3 : WARNING -
  The dynamical matrix was incomplete : phonon frequencies may be wrong ...

== END DATASET(S) ==============================================================

 -outvars: echo values of variables after computation  --------
            acell      1.0000000000E+00  1.0000000000E+00  1.0000000000E+00 Bohr
              amu      2.69815390E+01  7.49215900E+01
           diemac      9.00000000E+00
             ecut      6.00000000E+00 Hartree
           ecutsm      5.00000000E-01 Hartree
           etotal      5.4508668640E+00
            fcart      0.0000000000E+00  0.0000000000E+00  0.0000000000E+00
                       0.0000000000E+00  0.0000000000E+00  0.0000000000E+00
                       0.0000000000E+00  0.0000000000E+00  0.0000000000E+00
                       0.0000000000E+00  0.0000000000E+00  0.0000000000E+00
-          fftalg         112
           irdddk           1
           irdwfk           1
              kpt      0.00000000E+00  0.00000000E+00  1.25000000E-01
                       2.50000000E-01  0.00000000E+00  1.25000000E-01
                       5.00000000E-01  0.00000000E+00  1.25000000E-01
                      -2.50000000E-01  0.00000000E+00  1.25000000E-01
                       0.00000000E+00  2.50000000E-01  1.25000000E-01
                       2.50000000E-01  2.50000000E-01  1.25000000E-01
                       5.00000000E-01  2.50000000E-01  1.25000000E-01
                      -2.50000000E-01  2.50000000E-01  1.25000000E-01
                       0.00000000E+00  5.00000000E-01  1.25000000E-01
                       2.50000000E-01  5.00000000E-01  1.25000000E-01
                       5.00000000E-01  5.00000000E-01  1.25000000E-01
                      -2.50000000E-01  5.00000000E-01  1.25000000E-01
                       0.00000000E+00 -2.50000000E-01  1.25000000E-01
                       2.50000000E-01 -2.50000000E-01  1.25000000E-01
                       5.00000000E-01 -2.50000000E-01  1.25000000E-01
                      -2.50000000E-01 -2.50000000E-01  1.25000000E-01
                       0.00000000E+00  0.00000000E+00  3.75000000E-01
                       2.50000000E-01  0.00000000E+00  3.75000000E-01
                       5.00000000E-01  0.00000000E+00  3.75000000E-01
                      -2.50000000E-01  0.00000000E+00  3.75000000E-01
                       0.00000000E+00  2.50000000E-01  3.75000000E-01
                       2.50000000E-01  2.50000000E-01  3.75000000E-01
                       5.00000000E-01  2.50000000E-01  3.75000000E-01
                      -2.50000000E-01  2.50000000E-01  3.75000000E-01
                       0.00000000E+00  5.00000000E-01  3.75000000E-01
                       2.50000000E-01  5.00000000E-01  3.75000000E-01
                       5.00000000E-01  5.00000000E-01  3.75000000E-01
                      -2.50000000E-01  5.00000000E-01  3.75000000E-01
                       0.00000000E+00 -2.50000000E-01  3.75000000E-01
                       2.50000000E-01 -2.50000000E-01  3.75000000E-01
                       5.00000000E-01 -2.50000000E-01  3.75000000E-01
                      -2.50000000E-01 -2.50000000E-01  3.75000000E-01
           kptopt           2
         kptrlatt        4    0    0      0    4    0      0    0    4
          kptrlen      3.01558593E+01
P           mkmem          16
P          mkqmem          16
P          mk1mem          16
            natom           4
            nband           8
            ngfft          18      18      30
             nkpt          32
             nqpt           1
            nstep          40
             nsym          12
           ntypat           2
              occ      2.000000  2.000000  2.000000  2.000000  2.000000  2.000000
                       2.000000  2.000000
        optdriver           1
            rfdir           1       0       0
           rfphon           1
            rprim      6.5289350475E+00  3.7694824072E+00  0.0000000000E+00
                      -6.5289350475E+00  3.7694824072E+00  0.0000000000E+00
                       0.0000000000E+00  0.0000000000E+00  1.2277795374E+01
           shiftk      0.00000000E+00  0.00000000E+00  5.00000000E-01
          spgroup         186
           strten      0.0000000000E+00  0.0000000000E+00  0.0000000000E+00
                       0.0000000000E+00  0.0000000000E+00  0.0000000000E+00
           symrel      1  0  0   0  1  0   0  0  1       0  1  0   1  0  0   0  0  1
                       1  1  0  -1  0  0   0  0  1      -1  0  0   1  1  0   0  0  1
                       0  1  0  -1 -1  0   0  0  1      -1 -1  0   0  1  0   0  0  1
                      -1  0  0   0 -1  0   0  0  1       0 -1  0  -1  0  0   0  0  1
                      -1 -1  0   1  0  0   0  0  1       1  0  0  -1 -1  0   0  0  1
                       0 -1  0   1  1  0   0  0  1       1  1  0   0 -1  0   0  0  1
            tnons      0.0000000  0.0000000  0.0000000     0.0000000  0.0000000  0.5000000
                       0.0000000  0.0000000  0.5000000    -0.0000000  0.0000000  0.0000000
                       0.0000000  0.0000000  0.0000000     0.0000000 -0.0000000  0.5000000
                       0.0000000  0.0000000  0.5000000     0.0000000  0.0000000  0.0000000
                      -0.0000000  0.0000000  0.0000000     0.0000000  0.0000000  0.5000000
                       0.0000000 -0.0000000  0.5000000     0.0000000  0.0000000  0.0000000
           tolvrs      1.00000000E-12
            typat      1  1  2  2
              wtk        0.03125    0.03125    0.03125    0.03125    0.03125    0.03125
                         0.03125    0.03125    0.03125    0.03125    0.03125    0.03125
                         0.03125    0.03125    0.03125    0.03125    0.03125    0.03125
                         0.03125    0.03125    0.03125    0.03125    0.03125    0.03125
                         0.03125    0.03125    0.03125    0.03125    0.03125    0.03125
                         0.03125    0.03125
           xangst     -1.1516545412E+00  1.9947241781E+00  7.2132627467E-16
                       1.1516545412E+00  1.9947241781E+00  3.2485647418E+00
                      -1.1516545412E+00  1.9947241781E+00  2.4434786834E+00
                       1.1516545412E+00  1.9947241781E+00  5.6920434252E+00
            xcart     -2.1763116825E+00  3.7694824072E+00  1.3631091116E-15
                       2.1763116825E+00  3.7694824072E+00  6.1388976870E+00
                      -2.1763116825E+00  3.7694824072E+00  4.6175055231E+00
                       2.1763116825E+00  3.7694824072E+00  1.0756403210E+01
             xred      3.3333333333E-01  6.6666666667E-01  1.1102230246E-16
                       6.6666666667E-01  3.3333333333E-01  5.0000000000E-01
                       3.3333333333E-01  6.6666666667E-01  3.7608588370E-01
                       6.6666666667E-01  3.3333333333E-01  8.7608588370E-01
            znucl       13.00000   33.00000

- Timing analysis has been suppressed with timopt=0

 Suggested references for the acknowledgment of ABINIT usage.

 Calculation completed.
.Delivered   1 WARNINGs and   0 COMMENTs to log file.