.Version 8.7.6 of ABINIT

 ABINIT is a project of the Universite Catholique de Louvain,
 Corning Inc. and other collaborators, see ~abinit/doc/developers/contributors.txt .
 Please read ~abinit/doc/users/acknowledgments.html for suggested
 acknowledgments of the ABINIT effort.

.Starting date : Sun 18 Mar 2018.
- ( at 14h40 )

- input  file    -> /Users/gmatteo/git_repos/abitutorials/abitutorials/eph_al/flow_eph_al/w1/t12/run.abi
- output file    -> /Users/gmatteo/git_repos/abitutorials/abitutorials/eph_al/flow_eph_al/w1/t12/run.abo
- root for input  files -> /Users/gmatteo/git_repos/abitutorials/abitutorials/eph_al/flow_eph_al/w1/t12/indata/in
- root for output files -> /Users/gmatteo/git_repos/abitutorials/abitutorials/eph_al/flow_eph_al/w1/t12/outdata/out

 Symmetries : space group Fm -3 m (#225); Bravais cF (face-center cubic)
     intxc =       0      iscf =       7    lmnmax =       6     lnmax =       6
     mgfft =      15  mpssoang =       3    mqgrid =    3001     natom =       1
  nloc_mem =       1    nspden =       1   nspinor =       1    nsppol =       1
      nsym =      48    n1xccc =    2501    ntypat =       1    occopt =       7
   xclevel =       2
-    mband =           4        mffmem =           1         mkmem =         256
-   mkqmem =         256        mk1mem =         256           mpw =         125
      nfft =        3375          nkpt =         512
  Rough estimation (10% accuracy) of disk space for files :

------------- Echo of variables that govern the present computation ------------
-
- outvars: echo of selected default values
-   iomode0 =  0 , fftalg0 =112 , wfoptalg0 =  0
-
- outvars: echo of global parameters not present in the input file
-  max_nthreads =    0
-
 -outvars: echo values of preprocessed input variables --------
            acell      1.0000000000E+00  1.0000000000E+00  1.0000000000E+00 Bohr
              amu      2.69815390E+01
             ecut      8.00000000E+00 Hartree
-          fftalg         112
           irdwfk           1
           istwfk        1    0    0    0    1    0    0    0    0    0
                         0    0    0    0    0    0    0    0    0    0
                         0    0    0    0    0    0    0    0    0    0
                         0    0    1    0    0    0    1    0    0    0
                         0    0    0    0    0    0    0    0    0    0
                       outvar_i_n : Printing only first  50 k-points.
              ixc          11
              kpt      0.00000000E+00  0.00000000E+00  0.00000000E+00
                       1.25000000E-01  0.00000000E+00  0.00000000E+00
                       2.50000000E-01  0.00000000E+00  0.00000000E+00
                       3.75000000E-01  0.00000000E+00  0.00000000E+00
                       5.00000000E-01  0.00000000E+00  0.00000000E+00
                      -3.75000000E-01  0.00000000E+00  0.00000000E+00
                      -2.50000000E-01  0.00000000E+00  0.00000000E+00
                      -1.25000000E-01  0.00000000E+00  0.00000000E+00
                       0.00000000E+00  1.25000000E-01  0.00000000E+00
                       1.25000000E-01  1.25000000E-01  0.00000000E+00
                       2.50000000E-01  1.25000000E-01  0.00000000E+00
                       3.75000000E-01  1.25000000E-01  0.00000000E+00
                       5.00000000E-01  1.25000000E-01  0.00000000E+00
                      -3.75000000E-01  1.25000000E-01  0.00000000E+00
                      -2.50000000E-01  1.25000000E-01  0.00000000E+00
                      -1.25000000E-01  1.25000000E-01  0.00000000E+00
                       0.00000000E+00  2.50000000E-01  0.00000000E+00
                       1.25000000E-01  2.50000000E-01  0.00000000E+00
                       2.50000000E-01  2.50000000E-01  0.00000000E+00
                       3.75000000E-01  2.50000000E-01  0.00000000E+00
                       5.00000000E-01  2.50000000E-01  0.00000000E+00
                      -3.75000000E-01  2.50000000E-01  0.00000000E+00
                      -2.50000000E-01  2.50000000E-01  0.00000000E+00
                      -1.25000000E-01  2.50000000E-01  0.00000000E+00
                       0.00000000E+00  3.75000000E-01  0.00000000E+00
                       1.25000000E-01  3.75000000E-01  0.00000000E+00
                       2.50000000E-01  3.75000000E-01  0.00000000E+00
                       3.75000000E-01  3.75000000E-01  0.00000000E+00
                       5.00000000E-01  3.75000000E-01  0.00000000E+00
                      -3.75000000E-01  3.75000000E-01  0.00000000E+00
                      -2.50000000E-01  3.75000000E-01  0.00000000E+00
                      -1.25000000E-01  3.75000000E-01  0.00000000E+00
                       0.00000000E+00  5.00000000E-01  0.00000000E+00
                       1.25000000E-01  5.00000000E-01  0.00000000E+00
                       2.50000000E-01  5.00000000E-01  0.00000000E+00
                       3.75000000E-01  5.00000000E-01  0.00000000E+00
                       5.00000000E-01  5.00000000E-01  0.00000000E+00
                      -3.75000000E-01  5.00000000E-01  0.00000000E+00
                      -2.50000000E-01  5.00000000E-01  0.00000000E+00
                      -1.25000000E-01  5.00000000E-01  0.00000000E+00
                       0.00000000E+00 -3.75000000E-01  0.00000000E+00
                       1.25000000E-01 -3.75000000E-01  0.00000000E+00
                       2.50000000E-01 -3.75000000E-01  0.00000000E+00
                       3.75000000E-01 -3.75000000E-01  0.00000000E+00
                       5.00000000E-01 -3.75000000E-01  0.00000000E+00
                      -3.75000000E-01 -3.75000000E-01  0.00000000E+00
                      -2.50000000E-01 -3.75000000E-01  0.00000000E+00
                      -1.25000000E-01 -3.75000000E-01  0.00000000E+00
                       0.00000000E+00 -2.50000000E-01  0.00000000E+00
                       1.25000000E-01 -2.50000000E-01  0.00000000E+00
                       outvar_i_n : Printing only first  50 k-points.
           kptopt           3
         kptrlatt        8    0    0      0    8    0      0    0    8
          kptrlen      4.24264069E+01
P           mkmem         256
P          mkqmem         256
P          mk1mem         256
            natom           1
            nband           4
           nbdbuf           2
            ngfft          15      15      15
             nkpt         512
             nqpt           1
             nsym          48
           ntypat           1
              occ      2.000000  1.000000  0.000000  0.000000
                       2.000000  1.000000  0.000000  0.000000
                       2.000000  1.000000  0.000000  0.000000
                       2.000000  1.000000  0.000000  0.000000
                       2.000000  1.000000  0.000000  0.000000
                       2.000000  1.000000  0.000000  0.000000
                       2.000000  1.000000  0.000000  0.000000
                       2.000000  1.000000  0.000000  0.000000
                       2.000000  1.000000  0.000000  0.000000
                       2.000000  1.000000  0.000000  0.000000
                       2.000000  1.000000  0.000000  0.000000
                       2.000000  1.000000  0.000000  0.000000
                       2.000000  1.000000  0.000000  0.000000
                       2.000000  1.000000  0.000000  0.000000
                       2.000000  1.000000  0.000000  0.000000
                       2.000000  1.000000  0.000000  0.000000
                       2.000000  1.000000  0.000000  0.000000
                       2.000000  1.000000  0.000000  0.000000
                       2.000000  1.000000  0.000000  0.000000
                       2.000000  1.000000  0.000000  0.000000
                       2.000000  1.000000  0.000000  0.000000
                       2.000000  1.000000  0.000000  0.000000
                       2.000000  1.000000  0.000000  0.000000
                       2.000000  1.000000  0.000000  0.000000
                       2.000000  1.000000  0.000000  0.000000
                       2.000000  1.000000  0.000000  0.000000
                       2.000000  1.000000  0.000000  0.000000
                       2.000000  1.000000  0.000000  0.000000
                       2.000000  1.000000  0.000000  0.000000
                       2.000000  1.000000  0.000000  0.000000
                       2.000000  1.000000  0.000000  0.000000
                       2.000000  1.000000  0.000000  0.000000
                       2.000000  1.000000  0.000000  0.000000
                       2.000000  1.000000  0.000000  0.000000
                       2.000000  1.000000  0.000000  0.000000
                       2.000000  1.000000  0.000000  0.000000
                       2.000000  1.000000  0.000000  0.000000
                       2.000000  1.000000  0.000000  0.000000
                       2.000000  1.000000  0.000000  0.000000
                       2.000000  1.000000  0.000000  0.000000
                       2.000000  1.000000  0.000000  0.000000
                       2.000000  1.000000  0.000000  0.000000
                       2.000000  1.000000  0.000000  0.000000
                       2.000000  1.000000  0.000000  0.000000
                       2.000000  1.000000  0.000000  0.000000
                       2.000000  1.000000  0.000000  0.000000
                       2.000000  1.000000  0.000000  0.000000
                       2.000000  1.000000  0.000000  0.000000
                       2.000000  1.000000  0.000000  0.000000
                       2.000000  1.000000  0.000000  0.000000
                       prtocc : prtvol=0, do not print more k-points.
           occopt           7
        optdriver           1
           prtden           0
            prtwf          -1
              qpt     -2.50000000E-01  5.00000000E-01  2.50000000E-01
            rfdir           1       0       0
           rfphon           1
            rprim      0.0000000000E+00  3.7500000000E+00  3.7500000000E+00
                       3.7500000000E+00  0.0000000000E+00  3.7500000000E+00
                       3.7500000000E+00  3.7500000000E+00  0.0000000000E+00
          spgroup         225
           symrel      1  0  0   0  1  0   0  0  1      -1  0  0   0 -1  0   0  0 -1
                       0 -1  1   0 -1  0   1 -1  0       0  1 -1   0  1  0  -1  1  0
                      -1  0  0  -1  0  1  -1  1  0       1  0  0   1  0 -1   1 -1  0
                       0  1 -1   1  0 -1   0  0 -1       0 -1  1  -1  0  1   0  0  1
                      -1  0  0  -1  1  0  -1  0  1       1  0  0   1 -1  0   1  0 -1
                       0 -1  1   1 -1  0   0 -1  0       0  1 -1  -1  1  0   0  1  0
                       1  0  0   0  0  1   0  1  0      -1  0  0   0  0 -1   0 -1  0
                       0  1 -1   0  0 -1   1  0 -1       0 -1  1   0  0  1  -1  0  1
                      -1  0  1  -1  1  0  -1  0  0       1  0 -1   1 -1  0   1  0  0
                       0 -1  0   1 -1  0   0 -1  1       0  1  0  -1  1  0   0  1 -1
                       1  0 -1   0  0 -1   0  1 -1      -1  0  1   0  0  1   0 -1  1
[...]
- Al    ONCVPSP  r_core=  1.77  1.77  1.71
- 13.00000   3.00000    150121                znucl, zion, pspdat
    8   11    2    4       600   0.00000      pspcod,pspxc,lmax,lloc,mmax,r2well
    5.99000000000000    0.65000000000000    0.00000000000000   rchrg,fchrg,qchrg
     nproj     2     2     2
     extension_switch     0
  pspatm : epsatm=    5.28546466
         --- l  ekb(1:nproj) -->
             0    5.189455    0.741531
             1    7.659436    0.819933
             2  -21.179473   -1.097800
 pspatm: atomic psp has been read  and splines computed

   1.58563940E+01                                ecore*ucvol(ha*bohr**3)

-inwffil : will read wavefunctions from disk file /Users/gmatteo/git_repos/abitutorials/abitutorials/eph_al/flow_eph_al/w1/t12/indata/in_WFK

 ==>  initialize data related to q vector <==

 The list of irreducible perturbations for this q vector is:
    1)    idir= 1    ipert=   1

 Perturbation wavevector (in red.coord.)  -0.250000  0.500000  0.250000
 Perturbation : displacement of atom   1   along direction   1
 The set of symmetries contains only one element for this perturbation.
 symkpt : not enough symmetry to change the number of k points.

-inwffil : will read wavefunctions from disk file /Users/gmatteo/git_repos/abitutorials/abitutorials/eph_al/flow_eph_al/w1/t12/indata/in_WFK

-inwffil : will read wavefunctions from disk file /Users/gmatteo/git_repos/abitutorials/abitutorials/eph_al/flow_eph_al/w1/t12/indata/in_WFK
 dfpt_looppert : total number of electrons, from k and k+q
  fully or partially occupied states are    3.000000E+00 and    3.000000E+00.
 Initialisation of the first-order wave-functions :
  ireadwf=   0

     iter   2DEtotal(Ha)        deltaE(Ha) residm    vres2
-ETOT  1   8.1854018198824     -1.170E+01 3.297E+00 4.076E+03
 ETOT  2   2.2695494715488     -5.916E+00 5.542E-01 9.674E+00
 ETOT  3   2.2650690052759     -4.480E-03 2.639E-01 8.172E-02
 ETOT  4   2.2649737472571     -9.526E-05 3.716E-02 1.571E-03
 ETOT  5   2.2649715672708     -2.180E-06 7.357E-02 8.202E-06
 ETOT  6   2.2649715586099     -8.661E-09 9.783E-03 3.136E-08
 ETOT  7   2.2649715585759     -3.405E-11 2.067E-02 2.092E-10
 ETOT  8   2.2649715585757     -2.061E-13 9.744E-03 5.327E-13

 At SCF step    8       vres2   =  5.33E-13 < tolvrs=  1.00E-10 =>converged.

 ----iterations are completed or convergence reached----

 dfpt_looppert: DFPT cycle converged with prtwf=-1. Will skip output of the 1st-order WFK file.

 Thirteen components of 2nd-order total energy (hartree) are
 1,2,3: 0th-order hamiltonian combined with 1st-order wavefunctions
     kin0=   1.13105178E+01 eigvalue=  -7.16398826E-01  local=  -6.64430231E+00
 4,5,6: 1st-order hamiltonian combined with 1st and 0th-order wfs
 loc psp =  -9.98482696E+00  Hartree=   4.52788019E+00     xc=  -1.51079731E+00
 note that "loc psp" includes a xc core correction that could be resolved
 7,8,9: eventually, occupation + non-local contributions
    edocc=   2.33089969E+00     enl0=   8.32169474E+00   enl1=  -2.52541609E+01
 1-9 gives the relaxation energy (to be shifted if some occ is /=2.0)
   erelax=  -1.76194939E+01
 10,11,12 Non-relaxation  contributions : frozen-wavefunctions and Ewald
 fr.local=  -4.36717663E+00 fr.nonlo=   1.71475554E+01  Ewald=   9.10748618E+00
 13,14 Frozen wf xc core corrections (1) and (2)
 frxc 1  =  -3.33535636E+01  frxc 2 =   3.13501641E+01
 Resulting in :
 2DEtotal=    0.2264971559E+01 Ha. Also 2DEtotal=    0.616330105124E+02 eV
    (2DErelax=   -1.7619493935E+01 Ha. 2DEnonrelax=    1.9884465494E+01 Ha)
    (  non-var. 2DEtotal :    2.2649715533E+00 Ha)

 ---- first-order wavefunction calculations are completed ----

 ==> Compute Derivative Database <==

  2nd-order matrix (non-cartesian coordinates, masses not included,
   asr not included )
     j1       j2             matrix element
  dir pert dir pert     real part     imaginary part

   1    1   1    1         2.3022200962        -0.0000009952
   1    1   2    1         1.3682699214         0.0000000000
   1    1   3    1         0.9339501748        -0.0000009952

[...]

  Dynamical matrix, in cartesian coordinates,
   if specified in the inputs, asr has been imposed
     j1       j2             matrix element
  dir pert dir pert     real part    imaginary part

[...]

   3    1   1    1        -0.0000000000        -0.0000000000
   3    1   2    1         0.0000000000         0.0000000000
   3    1   3    1         0.0972991944         0.0000000000

  Phonon wavevector (reduced coordinates) : -0.25000  0.50000  0.25000
 Phonon energies in Hartree :
   1.162030E-03  1.406505E-03  1.406505E-03
 Phonon frequencies in cm-1    :
-  2.550360E+02  3.086921E+02  3.086921E+02

== END DATASET(S) ==============================================================

 -outvars: echo values of variables after computation  --------
            acell      1.0000000000E+00  1.0000000000E+00  1.0000000000E+00 Bohr
              amu      2.69815390E+01
             ecut      8.00000000E+00 Hartree
           etotal      2.2649715586E+00
            fcart      0.0000000000E+00  0.0000000000E+00  0.0000000000E+00
-          fftalg         112
           irdwfk           1
           istwfk        1    0    0    0    1    0    0    0    0    0
                         0    0    0    0    0    0    0    0    0    0
                         0    0    0    0    0    0    0    0    0    0
                         0    0    1    0    0    0    1    0    0    0
                         0    0    0    0    0    0    0    0    0    0
                       outvar_i_n : Printing only first  50 k-points.
              ixc          11
              kpt      0.00000000E+00  0.00000000E+00  0.00000000E+00
                       1.25000000E-01  0.00000000E+00  0.00000000E+00
                       2.50000000E-01  0.00000000E+00  0.00000000E+00
                       3.75000000E-01  0.00000000E+00  0.00000000E+00
                       5.00000000E-01  0.00000000E+00  0.00000000E+00
                      -3.75000000E-01  0.00000000E+00  0.00000000E+00
                      -2.50000000E-01  0.00000000E+00  0.00000000E+00
                      -1.25000000E-01  0.00000000E+00  0.00000000E+00
                       0.00000000E+00  1.25000000E-01  0.00000000E+00
                       1.25000000E-01  1.25000000E-01  0.00000000E+00
                       2.50000000E-01  1.25000000E-01  0.00000000E+00
                       3.75000000E-01  1.25000000E-01  0.00000000E+00
                       5.00000000E-01  1.25000000E-01  0.00000000E+00
                      -3.75000000E-01  1.25000000E-01  0.00000000E+00
                      -2.50000000E-01  1.25000000E-01  0.00000000E+00
                      -1.25000000E-01  1.25000000E-01  0.00000000E+00
                       0.00000000E+00  2.50000000E-01  0.00000000E+00
                       1.25000000E-01  2.50000000E-01  0.00000000E+00
                       2.50000000E-01  2.50000000E-01  0.00000000E+00
                       3.75000000E-01  2.50000000E-01  0.00000000E+00
                       5.00000000E-01  2.50000000E-01  0.00000000E+00
                      -3.75000000E-01  2.50000000E-01  0.00000000E+00
                      -2.50000000E-01  2.50000000E-01  0.00000000E+00
                      -1.25000000E-01  2.50000000E-01  0.00000000E+00
                       0.00000000E+00  3.75000000E-01  0.00000000E+00
                       1.25000000E-01  3.75000000E-01  0.00000000E+00
                       2.50000000E-01  3.75000000E-01  0.00000000E+00
                       3.75000000E-01  3.75000000E-01  0.00000000E+00
                       5.00000000E-01  3.75000000E-01  0.00000000E+00
                      -3.75000000E-01  3.75000000E-01  0.00000000E+00
                      -2.50000000E-01  3.75000000E-01  0.00000000E+00
                      -1.25000000E-01  3.75000000E-01  0.00000000E+00
                       0.00000000E+00  5.00000000E-01  0.00000000E+00
                       1.25000000E-01  5.00000000E-01  0.00000000E+00
                       2.50000000E-01  5.00000000E-01  0.00000000E+00
                       3.75000000E-01  5.00000000E-01  0.00000000E+00
                       5.00000000E-01  5.00000000E-01  0.00000000E+00
                      -3.75000000E-01  5.00000000E-01  0.00000000E+00
                      -2.50000000E-01  5.00000000E-01  0.00000000E+00
                      -1.25000000E-01  5.00000000E-01  0.00000000E+00
                       0.00000000E+00 -3.75000000E-01  0.00000000E+00
                       1.25000000E-01 -3.75000000E-01  0.00000000E+00
                       2.50000000E-01 -3.75000000E-01  0.00000000E+00
                       3.75000000E-01 -3.75000000E-01  0.00000000E+00
                       5.00000000E-01 -3.75000000E-01  0.00000000E+00
                      -3.75000000E-01 -3.75000000E-01  0.00000000E+00
                      -2.50000000E-01 -3.75000000E-01  0.00000000E+00
                      -1.25000000E-01 -3.75000000E-01  0.00000000E+00
                       0.00000000E+00 -2.50000000E-01  0.00000000E+00
                       1.25000000E-01 -2.50000000E-01  0.00000000E+00
                       outvar_i_n : Printing only first  50 k-points.
           kptopt           3
         kptrlatt        8    0    0      0    8    0      0    0    8
          kptrlen      4.24264069E+01
P           mkmem         256
P          mkqmem         256
P          mk1mem         256
            natom           1
            nband           4
           nbdbuf           2
            ngfft          15      15      15
             nkpt         512
             nqpt           1
             nsym          48
           ntypat           1
              occ      2.000000  0.000000  0.000000  0.000000
                       2.000000  0.000000  0.000000  0.000000
                       2.000000  0.000002  0.000000  0.000000
                       2.000000  1.723113  0.000000  0.000000
                       2.000000  2.000000  0.000000  0.000000
                       2.000000  1.723113  0.000000  0.000000
                       2.000000  0.000002  0.000000  0.000000
                       2.000000  0.000000  0.000000  0.000000
                       2.000000  0.000000  0.000000  0.000000
                       2.000000  0.000000  0.000000  0.000000
                       2.000000  0.000000  0.000000  0.000000
                       2.000000  0.228477  0.000000  0.000000
                       2.000000  1.999924  0.000000  0.000000
                       2.000000  1.981199  0.000000  0.000000
                       2.000000  0.002016  0.000000  0.000000
                       2.000000  0.000000  0.000000  0.000000
                       2.000000  0.000002  0.000000  0.000000
                       2.000000  0.000000  0.000000  0.000000
                       2.000000  0.000000  0.000000  0.000000
                       2.000000  0.000011  0.000000  0.000000
                       2.000000  1.654126  0.000000  0.000000
                       2.000000  1.990238  0.000415  0.000000
                       2.000000  0.087605  0.000110  0.000000
                       2.000000  0.002016  0.000000  0.000000
                       2.000000  1.723113  0.000000  0.000000
                       2.000000  0.228477  0.000000  0.000000
                       2.000000  0.000011  0.000000  0.000000
                       2.000000  0.000366  0.000000  0.000000
                       2.000000  0.565531  0.002157  0.000000
                       1.987340  1.930624  1.274987  0.000000
                       2.000000  1.990238  0.000415  0.000000
                       2.000000  1.981199  0.000000  0.000000
                       2.000000  2.000000  0.000000  0.000000
                       2.000000  1.999924  0.000000  0.000000
                       2.000000  1.654126  0.000000  0.000000
                       2.000000  0.565531  0.002157  0.000000
                       1.999899  1.960336  0.000000  0.000000
                       2.000000  0.565531  0.002157  0.000000
                       2.000000  1.654126  0.000000  0.000000
                       2.000000  1.999924  0.000000  0.000000
                       2.000000  1.723113  0.000000  0.000000
                       2.000000  1.981199  0.000000  0.000000
                       2.000000  1.990238  0.000415  0.000000
                       1.987340  1.930624  1.274987  0.000000
                       2.000000  0.565531  0.002157  0.000000
                       2.000000  0.000366  0.000000  0.000000
                       2.000000  0.000011  0.000000  0.000000
                       2.000000  0.228477  0.000000  0.000000
                       2.000000  0.000002  0.000000  0.000000
                       2.000000  0.002016  0.000000  0.000000
                       prtocc : prtvol=0, do not print more k-points.
           occopt           7
        optdriver           1
           prtden           0
            prtwf          -1
              qpt     -2.50000000E-01  5.00000000E-01  2.50000000E-01
            rfdir           1       0       0
           rfphon           1
            rprim      0.0000000000E+00  3.7500000000E+00  3.7500000000E+00
                       3.7500000000E+00  0.0000000000E+00  3.7500000000E+00
                       3.7500000000E+00  3.7500000000E+00  0.0000000000E+00
          spgroup         225
           strten      0.0000000000E+00  0.0000000000E+00  0.0000000000E+00
                       0.0000000000E+00  0.0000000000E+00  0.0000000000E+00
           symrel      1  0  0   0  1  0   0  0  1      -1  0  0   0 -1  0   0  0 -1
                       0 -1  1   0 -1  0   1 -1  0       0  1 -1   0  1  0  -1  1  0
                      -1  0  0  -1  0  1  -1  1  0       1  0  0   1  0 -1   1 -1  0
                       0  1 -1   1  0 -1   0  0 -1       0 -1  1  -1  0  1   0  0  1
                      -1  0  0  -1  1  0  -1  0  1       1  0  0   1 -1  0   1  0 -1
                       0 -1  1   1 -1  0   0 -1  0       0  1 -1  -1  1  0   0  1  0
                       1  0  0   0  0  1   0  1  0      -1  0  0   0  0 -1   0 -1  0
                       0  1 -1   0  0 -1   1  0 -1       0 -1  1   0  0  1  -1  0  1
                      -1  0  1  -1  1  0  -1  0  0       1  0 -1   1 -1  0   1  0  0
                       0 -1  0   1 -1  0   0 -1  1       0  1  0  -1  1  0   0  1 -1
                       1  0 -1   0  0 -1   0  1 -1      -1  0  1   0  0  1   0 -1  1
                       0  1  0   0  0  1   1  0  0       0 -1  0   0  0 -1  -1  0  0
                       1  0 -1   0  1 -1   0  0 -1      -1  0  1   0 -1  1   0  0  1
                       0 -1  0   0 -1  1   1 -1  0       0  1  0   0  1 -1  -1  1  0
                      -1  0  1  -1  0  0  -1  1  0       1  0 -1   1  0  0   1 -1  0
                       0  1  0   1  0  0   0  0  1       0 -1  0  -1  0  0   0  0 -1
                       0  0 -1   0  1 -1   1  0 -1       0  0  1   0 -1  1  -1  0  1
                       1 -1  0   0 -1  1   0 -1  0      -1  1  0   0  1 -1   0  1  0
                       0  0  1   1  0  0   0  1  0       0  0 -1  -1  0  0   0 -1  0
                      -1  1  0  -1  0  0  -1  0  1       1 -1  0   1  0  0   1  0 -1
                       0  0  1   0  1  0   1  0  0       0  0 -1   0 -1  0  -1  0  0
                       1 -1  0   0 -1  0   0 -1  1      -1  1  0   0  1  0   0  1 -1
                       0  0 -1   1  0 -1   0  1 -1       0  0  1  -1  0  1   0 -1  1
                      -1  1  0  -1  0  1  -1  0  0       1 -1  0   1  0 -1   1  0  0
           tolvrs      1.00000000E-10
           tsmear      4.00000000E-02 Hartree
            typat      1
              wtk        0.00195    0.00195    0.00195    0.00195    0.00195    0.00195
                         0.00195    0.00195    0.00195    0.00195    0.00195    0.00195
                         0.00195    0.00195    0.00195    0.00195    0.00195    0.00195
                         0.00195    0.00195    0.00195    0.00195    0.00195    0.00195
                         0.00195    0.00195    0.00195    0.00195    0.00195    0.00195
                         0.00195    0.00195    0.00195    0.00195    0.00195    0.00195
                         0.00195    0.00195    0.00195    0.00195    0.00195    0.00195
                         0.00195    0.00195    0.00195    0.00195    0.00195    0.00195
                         0.00195    0.00195
                       outvars : Printing only first  50 k-points.
            znucl       13.00000

- Timing analysis has been suppressed with timopt=0

 Suggested references for the acknowledgment of ABINIT usage.

 Calculation completed.
.Delivered   0 WARNINGs and   0 COMMENTs to log file.