.Version 9.6.2.38 of ABINIT

 ABINIT is a project of the Universite Catholique de Louvain,
 Corning Inc. and other collaborators, see ~abinit/doc/developers/contributors.txt .
 acknowledgments of the ABINIT effort.

.Starting date : Mon 10 Jun 2024.
- ( at 13h54 )

- input  file    -> /Users/jbouquiaux/git/lumi_book/lumi_book/lumi/flow_deltaSCF/w0/t2/run.abi
- output file    -> /Users/jbouquiaux/git/lumi_book/lumi_book/lumi/flow_deltaSCF/w0/t2/run.abo
- root for input  files -> indata/in
- root for output files -> outdata/out

- inpspheads : Reading pseudopotential header in XML form from
-   /Users/jbouquiaux/git/lumi_book/lumi_book/lumi/pseudos/Eu.xml
- inpspheads : Reading pseudopotential header in XML form from
-   /Users/jbouquiaux/git/lumi_book/lumi_book/lumi/pseudos/Sr.xml
- inpspheads : Reading pseudopotential header in XML form from
-   /Users/jbouquiaux/git/lumi_book/lumi_book/lumi/pseudos/Li.xml
- inpspheads : Reading pseudopotential header in XML form from
-   /Users/jbouquiaux/git/lumi_book/lumi_book/lumi/pseudos/Al.xml
- inpspheads : Reading pseudopotential header in XML form from
-   /Users/jbouquiaux/git/lumi_book/lumi_book/lumi/pseudos/N.xml
- inpspheads : Reading pseudopotential header in XML form from
-   /Users/jbouquiaux/git/lumi_book/lumi_book/lumi/pseudos/O.xml
 Symmetries : space group P2/m (# 10); Bravais mP (primitive monocl.)
     intxc =       0    ionmov =       0      iscf =      17    lmnmax =      32
     lnmax =       8     mgfft =      45  mpssoang =       4    mqgrid =    3028
     natom =      36  nloc_mem =       2    nspden =       2   nspinor =       1
    nsppol =       2      nsym =       4    n1xccc =       1    ntypat =       6
    occopt =       2   xclevel =       1
-    mband =         115        mffmem =           1         mkmem =           1
       mpw =        2071          nfft =       72900          nkpt =           1
Pmy_natom=        18
 PAW method is used; the additional fine FFT grid is defined by:
   mgfftf=        64    nfftf =    204800
  Rough estimation (10% accuracy) of disk space for files :

------------- Echo of variables that govern the present computation ------------
-
- outvars: echo of selected default values
-   iomode0 =  0 , fftalg0 =112 , wfoptalg0 = 10
-
- outvars: echo of global parameters not present in the input file
-  max_nthreads =    0
-
 -outvars: echo values of preprocessed input variables --------
-          iomode           1
            acell      1.0000000000E+00  1.0000000000E+00  1.0000000000E+00 Bohr
              amu      1.51965000E+02  8.76200000E+01  6.94100000E+00
                       2.69815390E+01  1.40067400E+01  1.59994000E+01
          chkprim           0
      chksymbreak           0
     densfor_pred           6
           diemac      5.00000000E+00
             ecut      1.00000000E+01 Hartree
-          fftalg         112
           irdden           1
           istwfk        2
              ixc       -1012
            jpawu      2.57245278E-02  0.00000000E+00  0.00000000E+00  0.00000000E+00  0.00000000E+00  0.00000000E+00 Hartree
         kptrlatt        1    0    0      0    1    0      0    0    1
          kptrlen      1.20337760E+01
            lpawu           3      -1      -1      -1      -1      -1
P           mkmem           1
            natom          36
            nband         115     115
            ngfft          45      45      36
          ngfftdg          64      64      50
             nkpt           1
-        np_spkpt           2
           nspden           2
           nsppol           2
            nstep         100
             nsym           4
           ntypat           6
              occ      1.000000  1.000000  1.000000  1.000000  1.000000  1.000000
                       1.000000  1.000000  1.000000  1.000000  1.000000  1.000000
                       1.000000  1.000000  1.000000  1.000000  1.000000  1.000000
                       1.000000  1.000000  1.000000  1.000000  1.000000  1.000000
                       1.000000  1.000000  1.000000  1.000000  1.000000  1.000000
                       1.000000  1.000000  1.000000  1.000000  1.000000  1.000000
                       1.000000  1.000000  1.000000  1.000000  1.000000  1.000000
                       1.000000  1.000000  1.000000  1.000000  1.000000  1.000000
                       1.000000  1.000000  1.000000  1.000000  1.000000  1.000000
                       1.000000  1.000000  1.000000  1.000000  1.000000  1.000000
                       1.000000  1.000000  1.000000  1.000000  1.000000  1.000000
                       1.000000  1.000000  1.000000  1.000000  1.000000  1.000000
                       1.000000  1.000000  1.000000  1.000000  1.000000  1.000000
                       1.000000  1.000000  1.000000  1.000000  1.000000  1.000000
                       1.000000  1.000000  1.000000  1.000000  1.000000  1.000000
                       1.000000  1.000000  1.000000  1.000000  1.000000  0.000000
                       0.000000  0.000000  0.000000  0.000000  0.000000  0.000000
                       0.000000  0.000000  0.000000  0.000000  0.000000  0.000000
                       0.000000  0.000000  0.000000  0.000000  0.000000  0.000000
                       0.000000
                       1.000000  1.000000  1.000000  1.000000  1.000000  1.000000
                       1.000000  1.000000  1.000000  1.000000  1.000000  1.000000
                       1.000000  1.000000  1.000000  1.000000  1.000000  1.000000
                       1.000000  1.000000  1.000000  1.000000  1.000000  1.000000
                       1.000000  1.000000  1.000000  1.000000  1.000000  1.000000
                       1.000000  1.000000  1.000000  1.000000  1.000000  1.000000
                       1.000000  1.000000  1.000000  1.000000  1.000000  1.000000
                       1.000000  1.000000  1.000000  1.000000  1.000000  1.000000
                       1.000000  1.000000  1.000000  1.000000  1.000000  1.000000
                       1.000000  1.000000  1.000000  1.000000  1.000000  1.000000
                       1.000000  1.000000  1.000000  1.000000  1.000000  1.000000
                       1.000000  1.000000  1.000000  1.000000  1.000000  1.000000
                       1.000000  1.000000  1.000000  1.000000  1.000000  1.000000
                       1.000000  1.000000  1.000000  1.000000  1.000000  1.000000
                       1.000000  1.000000  1.000000  1.000000  0.000000  0.000000
                       0.000000  0.000000  0.000000  0.000000  0.000000  0.000000
                       0.000000  0.000000  0.000000  0.000000  0.000000  0.000000
                       0.000000  0.000000  0.000000  0.000000  0.000000  0.000000
                       0.000000  0.000000  0.000000  0.000000  0.000000  0.000000
                       0.000000
           occopt           2
        paral_kgb           1
        pawecutdg      2.00000000E+01 Hartree
            prtwf          -1
            rprim      1.5040330226E+01  0.0000000000E+00  0.0000000000E+00
                       0.0000000000E+00  1.5040330226E+01  0.0000000000E+00
                       0.0000000000E+00  0.0000000000E+00  1.2033775962E+01
          spgroup          10
           spinat      0.0000000000E+00  0.0000000000E+00  7.0000000000E+00
                       0.0000000000E+00  0.0000000000E+00  0.0000000000E+00
                       0.0000000000E+00  0.0000000000E+00  0.0000000000E+00
                       0.0000000000E+00  0.0000000000E+00  0.0000000000E+00
                       0.0000000000E+00  0.0000000000E+00  0.0000000000E+00
                       0.0000000000E+00  0.0000000000E+00  0.0000000000E+00
                       0.0000000000E+00  0.0000000000E+00  0.0000000000E+00
                       0.0000000000E+00  0.0000000000E+00  0.0000000000E+00
                       0.0000000000E+00  0.0000000000E+00  0.0000000000E+00
                       0.0000000000E+00  0.0000000000E+00  0.0000000000E+00
                       0.0000000000E+00  0.0000000000E+00  0.0000000000E+00
                       0.0000000000E+00  0.0000000000E+00  0.0000000000E+00
                       0.0000000000E+00  0.0000000000E+00  0.0000000000E+00
                       0.0000000000E+00  0.0000000000E+00  0.0000000000E+00
                       0.0000000000E+00  0.0000000000E+00  0.0000000000E+00
                       0.0000000000E+00  0.0000000000E+00  0.0000000000E+00
                       0.0000000000E+00  0.0000000000E+00  0.0000000000E+00
                       0.0000000000E+00  0.0000000000E+00  0.0000000000E+00
                       0.0000000000E+00  0.0000000000E+00  0.0000000000E+00
                       0.0000000000E+00  0.0000000000E+00  0.0000000000E+00
                       0.0000000000E+00  0.0000000000E+00  0.0000000000E+00
                       0.0000000000E+00  0.0000000000E+00  0.0000000000E+00
                       0.0000000000E+00  0.0000000000E+00  0.0000000000E+00
                       0.0000000000E+00  0.0000000000E+00  0.0000000000E+00
                       0.0000000000E+00  0.0000000000E+00  0.0000000000E+00
                       0.0000000000E+00  0.0000000000E+00  0.0000000000E+00
                       0.0000000000E+00  0.0000000000E+00  0.0000000000E+00
                       0.0000000000E+00  0.0000000000E+00  0.0000000000E+00
                       0.0000000000E+00  0.0000000000E+00  0.0000000000E+00
                       0.0000000000E+00  0.0000000000E+00  0.0000000000E+00
                       0.0000000000E+00  0.0000000000E+00  0.0000000000E+00
                       0.0000000000E+00  0.0000000000E+00  0.0000000000E+00
                       0.0000000000E+00  0.0000000000E+00  0.0000000000E+00
                       0.0000000000E+00  0.0000000000E+00  0.0000000000E+00
                       0.0000000000E+00  0.0000000000E+00  0.0000000000E+00
                       0.0000000000E+00  0.0000000000E+00  0.0000000000E+00
           symrel      1  0  0   0  1  0   0  0  1      -1  0  0   0 -1  0   0  0 -1
                      -1  0  0   0 -1  0   0  0  1       1  0  0   0  1  0   0  0 -1
            tnons      0.0000000  0.0000000  0.0000000    -0.0000000  0.0000000  0.5000000
                      -0.0000000  0.0000000  0.0000000     0.0000000  0.0000000  0.5000000
           toldfe      1.00000000E-06 Hartree
            typat      1  2  2  2  3  3  3  3  3  3  3  3  4  4  4  4  4  4  4  4
                       5  5  5  5  5  5  5  5  6  6  6  6  6  6  6  6
            upawu      2.57245278E-01  0.00000000E+00  0.00000000E+00  0.00000000E+00  0.00000000E+00  0.00000000E+00 Hartree
          usepawu           1
           useylm           1
         wfoptalg         114
           xangst      3.9794999826E+00  0.0000000000E+00  1.5919999931E+00
                       3.9794999826E+00  0.0000000000E+00  4.7759999793E+00
                      -4.4181325072E-16  3.9794999826E+00  7.5719328465E-04
                      -4.4181325072E-16  3.9794999826E+00  3.1832427929E+00
                       1.0143247787E+00  6.5690571807E+00  1.5919999931E+00
[...]
                      -1.3706972209E-03  5.5444017704E-04  5.6468863150E-22
                       1.4672889486E-03 -7.1901731502E-04  5.6468863150E-22
                       1.3706972209E-03 -5.5444017704E-04  5.6468863150E-22
-          fftalg         112
           irdden           1
           istwfk        2
              ixc       -1012
            jpawu      2.57245278E-02  0.00000000E+00  0.00000000E+00  0.00000000E+00  0.00000000E+00  0.00000000E+00 Hartree
         kptrlatt        1    0    0      0    1    0      0    0    1
          kptrlen      1.20337760E+01
            lpawu           3      -1      -1      -1      -1      -1
P           mkmem           1
            natom          36
            nband         115     115
            ngfft          45      45      36
          ngfftdg          64      64      50
             nkpt           1
-        np_spkpt           2
           nspden           2
           nsppol           2
            nstep         100
             nsym           4
           ntypat           6
              occ      1.000000  1.000000  1.000000  1.000000  1.000000  1.000000
                       1.000000  1.000000  1.000000  1.000000  1.000000  1.000000
                       1.000000  1.000000  1.000000  1.000000  1.000000  1.000000
                       1.000000  1.000000  1.000000  1.000000  1.000000  1.000000
                       1.000000  1.000000  1.000000  1.000000  1.000000  1.000000
                       1.000000  1.000000  1.000000  1.000000  1.000000  1.000000
                       1.000000  1.000000  1.000000  1.000000  1.000000  1.000000
                       1.000000  1.000000  1.000000  1.000000  1.000000  1.000000
                       1.000000  1.000000  1.000000  1.000000  1.000000  1.000000
                       1.000000  1.000000  1.000000  1.000000  1.000000  1.000000
                       1.000000  1.000000  1.000000  1.000000  1.000000  1.000000
                       1.000000  1.000000  1.000000  1.000000  1.000000  1.000000
                       1.000000  1.000000  1.000000  1.000000  1.000000  1.000000
                       1.000000  1.000000  1.000000  1.000000  1.000000  1.000000
                       1.000000  1.000000  1.000000  1.000000  1.000000  1.000000
                       1.000000  1.000000  1.000000  1.000000  1.000000  0.000000
                       0.000000  0.000000  0.000000  0.000000  0.000000  0.000000
                       0.000000  0.000000  0.000000  0.000000  0.000000  0.000000
                       0.000000  0.000000  0.000000  0.000000  0.000000  0.000000
                       0.000000
                       1.000000  1.000000  1.000000  1.000000  1.000000  1.000000
                       1.000000  1.000000  1.000000  1.000000  1.000000  1.000000
                       1.000000  1.000000  1.000000  1.000000  1.000000  1.000000
                       1.000000  1.000000  1.000000  1.000000  1.000000  1.000000
                       1.000000  1.000000  1.000000  1.000000  1.000000  1.000000
                       1.000000  1.000000  1.000000  1.000000  1.000000  1.000000
                       1.000000  1.000000  1.000000  1.000000  1.000000  1.000000
                       1.000000  1.000000  1.000000  1.000000  1.000000  1.000000
                       1.000000  1.000000  1.000000  1.000000  1.000000  1.000000
                       1.000000  1.000000  1.000000  1.000000  1.000000  1.000000
                       1.000000  1.000000  1.000000  1.000000  1.000000  1.000000
                       1.000000  1.000000  1.000000  1.000000  1.000000  1.000000
                       1.000000  1.000000  1.000000  1.000000  1.000000  1.000000
                       1.000000  1.000000  1.000000  1.000000  1.000000  1.000000
                       1.000000  1.000000  1.000000  1.000000  0.000000  0.000000
                       0.000000  0.000000  0.000000  0.000000  0.000000  0.000000
                       0.000000  0.000000  0.000000  0.000000  0.000000  0.000000
                       0.000000  0.000000  0.000000  0.000000  0.000000  0.000000
                       0.000000  0.000000  0.000000  0.000000  0.000000  0.000000
                       0.000000
           occopt           2
        paral_kgb           1
        pawecutdg      2.00000000E+01 Hartree
            prtwf          -1
            rprim      1.5040330226E+01  0.0000000000E+00  0.0000000000E+00
                       0.0000000000E+00  1.5040330226E+01  0.0000000000E+00
                       0.0000000000E+00  0.0000000000E+00  1.2033775962E+01
          spgroup          10
           spinat      0.0000000000E+00  0.0000000000E+00  7.0000000000E+00
                       0.0000000000E+00  0.0000000000E+00  0.0000000000E+00
                       0.0000000000E+00  0.0000000000E+00  0.0000000000E+00
                       0.0000000000E+00  0.0000000000E+00  0.0000000000E+00
                       0.0000000000E+00  0.0000000000E+00  0.0000000000E+00
                       0.0000000000E+00  0.0000000000E+00  0.0000000000E+00
                       0.0000000000E+00  0.0000000000E+00  0.0000000000E+00
                       0.0000000000E+00  0.0000000000E+00  0.0000000000E+00
                       0.0000000000E+00  0.0000000000E+00  0.0000000000E+00
                       0.0000000000E+00  0.0000000000E+00  0.0000000000E+00
                       0.0000000000E+00  0.0000000000E+00  0.0000000000E+00
                       0.0000000000E+00  0.0000000000E+00  0.0000000000E+00
                       0.0000000000E+00  0.0000000000E+00  0.0000000000E+00
                       0.0000000000E+00  0.0000000000E+00  0.0000000000E+00
                       0.0000000000E+00  0.0000000000E+00  0.0000000000E+00
                       0.0000000000E+00  0.0000000000E+00  0.0000000000E+00
                       0.0000000000E+00  0.0000000000E+00  0.0000000000E+00
                       0.0000000000E+00  0.0000000000E+00  0.0000000000E+00
                       0.0000000000E+00  0.0000000000E+00  0.0000000000E+00
                       0.0000000000E+00  0.0000000000E+00  0.0000000000E+00
                       0.0000000000E+00  0.0000000000E+00  0.0000000000E+00
                       0.0000000000E+00  0.0000000000E+00  0.0000000000E+00
                       0.0000000000E+00  0.0000000000E+00  0.0000000000E+00
                       0.0000000000E+00  0.0000000000E+00  0.0000000000E+00
                       0.0000000000E+00  0.0000000000E+00  0.0000000000E+00
                       0.0000000000E+00  0.0000000000E+00  0.0000000000E+00
                       0.0000000000E+00  0.0000000000E+00  0.0000000000E+00
                       0.0000000000E+00  0.0000000000E+00  0.0000000000E+00
                       0.0000000000E+00  0.0000000000E+00  0.0000000000E+00
                       0.0000000000E+00  0.0000000000E+00  0.0000000000E+00
                       0.0000000000E+00  0.0000000000E+00  0.0000000000E+00
                       0.0000000000E+00  0.0000000000E+00  0.0000000000E+00
                       0.0000000000E+00  0.0000000000E+00  0.0000000000E+00
                       0.0000000000E+00  0.0000000000E+00  0.0000000000E+00
                       0.0000000000E+00  0.0000000000E+00  0.0000000000E+00
                       0.0000000000E+00  0.0000000000E+00  0.0000000000E+00
           strten      2.6512205203E-03  2.6535904144E-03  2.4364527873E-03
                       0.0000000000E+00  0.0000000000E+00 -1.6782559129E-06
           symrel      1  0  0   0  1  0   0  0  1      -1  0  0   0 -1  0   0  0 -1
                      -1  0  0   0 -1  0   0  0  1       1  0  0   0  1  0   0  0 -1
            tnons      0.0000000  0.0000000  0.0000000    -0.0000000  0.0000000  0.5000000
                      -0.0000000  0.0000000  0.0000000     0.0000000  0.0000000  0.5000000
           toldfe      1.00000000E-06 Hartree
            typat      1  2  2  2  3  3  3  3  3  3  3  3  4  4  4  4  4  4  4  4
                       5  5  5  5  5  5  5  5  6  6  6  6  6  6  6  6
            upawu      2.57245278E-01  0.00000000E+00  0.00000000E+00  0.00000000E+00  0.00000000E+00  0.00000000E+00 Hartree
          usepawu           1
           useylm           1
         wfoptalg         114
           xangst      3.9794999826E+00  0.0000000000E+00  1.5919999931E+00
                       3.9794999826E+00  0.0000000000E+00  4.7759999793E+00
                      -4.4181325072E-16  3.9794999826E+00  7.5719328465E-04
                      -4.4181325072E-16  3.9794999826E+00  3.1832427929E+00
                       1.0143247787E+00  6.5690571807E+00  1.5919999931E+00
                       1.0111621849E+00  6.5663566220E+00  4.7759999793E+00
                       6.9446751865E+00  1.3899427846E+00  1.5919999931E+00
                       6.9478377803E+00  1.3926433433E+00  4.7759999793E+00
                       1.3927589215E+00  1.0130984918E+00  1.8301359443E-03
                       1.3927589215E+00  1.0130984918E+00  3.1821698502E+00
                       6.5662410438E+00  6.9459014734E+00  1.8301359443E-03
                       6.5662410438E+00  6.9459014734E+00  3.1821698502E+00
                       2.7994832606E+00  5.4313804085E+00  1.3556938181E-03
                       2.7994832606E+00  5.4313804085E+00  3.1826442924E+00
                       5.1595167046E+00  2.5276195568E+00  1.3556938181E-03
                       5.1595167046E+00  2.5276195568E+00  3.1826442924E+00
                       2.5294160873E+00  2.7943317518E+00  1.5919999931E+00
                       2.5291677168E+00  2.7979241244E+00  4.7759999793E+00
                       5.4295838779E+00  5.1646682135E+00  1.5919999931E+00
                       5.4298322485E+00  5.1610758409E+00  4.7759999793E+00
                       4.6504816075E+00  5.8173135707E+00 -4.5713082027E-04
                       4.6504816075E+00  5.8173135707E+00  3.1844571170E+00
                       3.3085183577E+00  2.1416863945E+00 -4.5713082027E-04
                       3.3085183577E+00  2.1416863945E+00  3.1844571170E+00
                       2.1504989180E+00  4.6488692932E+00  1.5919999931E+00
                       2.1522159784E+00  4.6510079274E+00  4.7759999793E+00
                       5.8085010472E+00  3.3101306721E+00  1.5919999931E+00
                       5.8067839869E+00  3.3079920378E+00  4.7759999793E+00
                       2.0097207164E+00  7.0596015932E+00 -5.2637374477E-04
                       2.0097207164E+00  7.0596015932E+00  3.1845263599E+00
                       5.9492792488E+00  8.9939837204E-01 -5.2637374477E-04
                       5.9492792488E+00  8.9939837204E-01  3.1845263599E+00
                       8.9776047273E-01  2.0143457932E+00  1.5919999931E+00
                       8.9722774423E-01  2.0175379077E+00  4.7759999793E+00
                       7.0612394925E+00  5.9446541721E+00  1.5919999931E+00
                       7.0617722210E+00  5.9414620576E+00  4.7759999793E+00
            xcart      7.5201651130E+00  0.0000000000E+00  3.0084439905E+00
                       7.5201651130E+00  0.0000000000E+00  9.0253319715E+00
                      -8.3490604574E-16  7.5201651130E+00  1.4308879376E-03
                      -8.3490604574E-16  7.5201651130E+00  6.0154570931E+00
                       1.9167960416E+00  1.2413719023E+01  3.0084439905E+00
                       1.9108196055E+00  1.2408615706E+01  9.0253319715E+00
                       1.3123534184E+01  2.6266112032E+00  3.0084439905E+00
                       1.3129510621E+01  2.6317145196E+00  9.0253319715E+00
                       2.6319329307E+00  1.9144786952E+00  3.4584557208E-03
                       2.6319329307E+00  1.9144786952E+00  6.0134295253E+00
                       1.2408397295E+01  1.3125851531E+01  3.4584557208E-03
                       1.2408397295E+01  1.3125851531E+01  6.0134295253E+00
                       5.2902566762E+00  1.0263821496E+01  2.5618900362E-03
                       5.2902566762E+00  1.0263821496E+01  6.0143260910E+00
                       9.7500735498E+00  4.7765087304E+00  2.5618900362E-03
                       9.7500735498E+00  4.7765087304E+00  6.0143260910E+00
                       4.7799036812E+00  5.2805217353E+00  3.0084439905E+00
                       4.7794343288E+00  5.2873103357E+00  9.0253319715E+00
                       1.0260426545E+01  9.7598084907E+00  3.0084439905E+00
                       1.0260895897E+01  9.7530198903E+00  9.0253319715E+00
                       8.7881366242E+00  1.0993129478E+01 -8.6385205721E-04
                       8.7881366242E+00  1.0993129478E+01  6.0177518331E+00
                       6.2521936018E+00  4.0472007482E+00 -8.6385205721E-04
                       6.2521936018E+00  4.0472007482E+00  6.0177518331E+00
                       4.0638540042E+00  8.7850897917E+00  3.0084439905E+00
                       4.0670987779E+00  8.7891312247E+00  9.0253319715E+00
                       1.0976476222E+01  6.2552404343E+00  3.0084439905E+00
                       1.0973231448E+01  6.2511990013E+00  9.0253319715E+00
                       3.7978217576E+00  1.3340713618E+01 -9.9470222116E-04
                       3.7978217576E+00  1.3340713618E+01  6.0178826832E+00
                       1.1242508468E+01  1.6996166075E+00 -9.9470222116E-04
                       1.1242508468E+01  1.6996166075E+00  6.0178826832E+00
                       1.6965214264E+00  3.8065618860E+00  3.0084439905E+00
                       1.6955147154E+00  3.8125941083E+00  9.0253319715E+00
                       1.3343808800E+01  1.1233768340E+01  3.0084439905E+00
                       1.3344815511E+01  1.1227736118E+01  9.0253319715E+00
             xred      5.0000000000E-01  0.0000000000E+00  2.5000000000E-01
                       5.0000000000E-01  0.0000000000E+00  7.5000000000E-01
                      -5.5511151231E-17  5.0000000000E-01  1.1890598115E-04
                      -5.5511151231E-17  5.0000000000E-01  4.9988109402E-01
                       1.2744374710E-01  8.2536213210E-01  2.5000000000E-01
                       1.2704638640E-01  8.2502282330E-01  7.5000000000E-01
                       8.7255625290E-01  1.7463786790E-01  2.5000000000E-01
                       8.7295361360E-01  1.7497717670E-01  7.5000000000E-01
                       1.7499169840E-01  1.2728967160E-01  2.8739572115E-04
                       1.7499169840E-01  1.2728967160E-01  4.9971260428E-01
                       8.2500830160E-01  8.7271032840E-01  2.8739572115E-04
                       8.2500830160E-01  8.7271032840E-01  4.9971260428E-01
                       3.5173806670E-01  6.8241995630E-01  2.1289161808E-04
                       3.5173806670E-01  6.8241995630E-01  4.9978710838E-01
                       6.4826193330E-01  3.1758004370E-01  2.1289161808E-04
                       6.4826193330E-01  3.1758004370E-01  4.9978710838E-01
                       3.1780576685E-01  3.5109081090E-01  2.5000000000E-01
                       3.1777456060E-01  3.5154217070E-01  7.5000000000E-01
                       6.8219423315E-01  6.4890918910E-01  2.5000000000E-01
                       6.8222543940E-01  6.4845782930E-01  7.5000000000E-01
                       5.8430476540E-01  7.3091011385E-01 -7.1785619073E-05
                       5.8430476540E-01  7.3091011385E-01  5.0007178562E-01
                       4.1569523460E-01  2.6908988615E-01 -7.1785619073E-05
                       4.1569523460E-01  2.6908988615E-01  5.0007178562E-01
                       2.7019712620E-01  5.8410218790E-01  2.5000000000E-01
                       2.7041286440E-01  5.8437089430E-01  7.5000000000E-01
                       7.2980287380E-01  4.1589781210E-01  2.5000000000E-01
                       7.2958713560E-01  4.1562910570E-01  7.5000000000E-01
                       2.5250920030E-01  8.8699605780E-01 -8.2659193947E-05
                       2.5250920030E-01  8.8699605780E-01  5.0008265919E-01
                       7.4749079970E-01  1.1300394220E-01 -8.2659193947E-05
                       7.4749079970E-01  1.1300394220E-01  5.0008265919E-01
                       1.1279815010E-01  2.5309031310E-01  2.5000000000E-01
                       1.1273121600E-01  2.5349138290E-01  7.5000000000E-01
                       8.8720184990E-01  7.4690968690E-01  2.5000000000E-01
                       8.8726878400E-01  7.4650861710E-01  7.5000000000E-01
            znucl       63.00000   38.00000    3.00000   13.00000    7.00000    8.00000

- Timing analysis has been suppressed with timopt=0

 Suggested references for the acknowledgment of ABINIT usage.

 Calculation completed.
.Delivered   0 WARNINGs and   0 COMMENTs to log file.