.Version 8.5.3 of ABINIT

 ABINIT is a project of the Universite Catholique de Louvain,
 Corning Inc. and other collaborators, see ~abinit/doc/developers/contributors.txt .
 Please read ~abinit/doc/users/acknowledgments.html for suggested
 acknowledgments of the ABINIT effort.

.Starting date : Thu 12 Oct 2017.
- ( at 22h33 )

- input  file    -> /Users/gmatteo/git_repos/abitutorials/abitutorials/dfpt/flow_alas_phonons/w1/t4/run.abi
- output file    -> /Users/gmatteo/git_repos/abitutorials/abitutorials/dfpt/flow_alas_phonons/w1/t4/run.abo
- root for input  files -> /Users/gmatteo/git_repos/abitutorials/abitutorials/dfpt/flow_alas_phonons/w1/t4/indata/in
- root for output files -> /Users/gmatteo/git_repos/abitutorials/abitutorials/dfpt/flow_alas_phonons/w1/t4/outdata/out

 Symmetries : space group F-4 3 m (#216); Bravais cF (face-center cubic)
     intxc =       0      iscf =       7    lmnmax =       3     lnmax =       3
     mgfft =      18  mpssoang =       3    mqgrid =    3001     natom =       2
  nloc_mem =       1    nspden =       1   nspinor =       1    nsppol =       1
      nsym =      24    n1xccc =    2501    ntypat =       2    occopt =       1
   xclevel =       1
-    mband =           4        mffmem =           1         mkmem =          64
-   mkqmem =          64        mk1mem =          64           mpw =         213
      nfft =        5832          nkpt =         128
  Rough estimation (10% accuracy) of disk space for files :

------------- Echo of variables that govern the present computation ------------
-
- outvars: echo of selected default values
-   iomode0 =  0 , fftalg0 =112 , wfoptalg0 =  0
-
- outvars: echo of global parameters not present in the input file
-  max_nthreads =    0
-
 -outvars: echo values of preprocessed input variables --------
            acell      1.0000000000E+00  1.0000000000E+00  1.0000000000E+00 Bohr
              amu      2.69815390E+01  7.49215900E+01
           diemac      9.00000000E+00
             ecut      6.00000000E+00 Hartree
-          fftalg         112
           irdddk           1
           irdwfk           1
              kpt     -1.25000000E-01 -2.50000000E-01  0.00000000E+00
                      -2.50000000E-01 -1.25000000E-01  0.00000000E+00
                      -1.25000000E-01 -1.25000000E-01  1.25000000E-01
                      -1.25000000E-01  5.00000000E-01  0.00000000E+00
                      -2.50000000E-01 -3.75000000E-01  0.00000000E+00
                      -1.25000000E-01 -3.75000000E-01  1.25000000E-01
                      -3.75000000E-01 -2.50000000E-01  0.00000000E+00
                      -2.50000000E-01 -2.50000000E-01  1.25000000E-01
                      -1.25000000E-01 -2.50000000E-01  2.50000000E-01
                       5.00000000E-01 -1.25000000E-01  0.00000000E+00
                      -3.75000000E-01 -1.25000000E-01  1.25000000E-01
                      -2.50000000E-01 -1.25000000E-01  2.50000000E-01
                      -1.25000000E-01 -1.25000000E-01  3.75000000E-01
                      -1.25000000E-01  2.50000000E-01  0.00000000E+00
                      -2.50000000E-01  3.75000000E-01  0.00000000E+00
                      -1.25000000E-01  3.75000000E-01  1.25000000E-01
                      -3.75000000E-01  5.00000000E-01  0.00000000E+00
                      -2.50000000E-01  5.00000000E-01  1.25000000E-01
                      -1.25000000E-01  5.00000000E-01  2.50000000E-01
                       5.00000000E-01 -3.75000000E-01  0.00000000E+00
                      -3.75000000E-01 -3.75000000E-01  1.25000000E-01
                      -2.50000000E-01 -3.75000000E-01  2.50000000E-01
                      -1.25000000E-01 -3.75000000E-01  3.75000000E-01
                       3.75000000E-01 -2.50000000E-01  0.00000000E+00
                       5.00000000E-01 -2.50000000E-01  1.25000000E-01
                      -3.75000000E-01 -2.50000000E-01  2.50000000E-01
                      -2.50000000E-01 -2.50000000E-01  3.75000000E-01
                      -1.25000000E-01 -2.50000000E-01  5.00000000E-01
                       2.50000000E-01 -1.25000000E-01  0.00000000E+00
                       3.75000000E-01 -1.25000000E-01  1.25000000E-01
                       5.00000000E-01 -1.25000000E-01  2.50000000E-01
                      -3.75000000E-01 -1.25000000E-01  3.75000000E-01
                      -2.50000000E-01 -1.25000000E-01  5.00000000E-01
                      -1.25000000E-01 -1.25000000E-01 -3.75000000E-01
                      -1.25000000E-01  0.00000000E+00  0.00000000E+00
                      -1.25000000E-01  1.25000000E-01  1.25000000E-01
                      -2.50000000E-01  2.50000000E-01  1.25000000E-01
                      -1.25000000E-01  2.50000000E-01  2.50000000E-01
                      -3.75000000E-01  3.75000000E-01  1.25000000E-01
                      -2.50000000E-01  3.75000000E-01  2.50000000E-01
                      -1.25000000E-01  3.75000000E-01  3.75000000E-01
                       5.00000000E-01  5.00000000E-01  1.25000000E-01
                      -3.75000000E-01  5.00000000E-01  2.50000000E-01
                      -2.50000000E-01  5.00000000E-01  3.75000000E-01
                      -1.25000000E-01  5.00000000E-01  5.00000000E-01
                       3.75000000E-01 -3.75000000E-01  1.25000000E-01
                       5.00000000E-01 -3.75000000E-01  2.50000000E-01
                      -3.75000000E-01 -3.75000000E-01  3.75000000E-01
                      -2.50000000E-01 -3.75000000E-01  5.00000000E-01
                      -1.25000000E-01 -3.75000000E-01 -3.75000000E-01
                       outvar_i_n : Printing only first  50 k-points.
           kptopt           2
         kptrlatt        4   -4    4     -4    4    4     -4   -4    4
          kptrlen      4.24400000E+01
P           mkmem          64
P          mkqmem          64
P          mk1mem          64
            natom           2
            nband           4
            ngfft          18      18      18
             nkpt         128
             nqpt           1
            nstep          25
             nsym          24
           ntypat           2
              occ      2.000000  2.000000  2.000000  2.000000
        optdriver           1
          rfatpol           2       2
            rfdir           1       0       0
           rfelfd           3
           rfphon           1
            rprim      0.0000000000E+00  5.3050000000E+00  5.3050000000E+00
                       5.3050000000E+00  0.0000000000E+00  5.3050000000E+00
                       5.3050000000E+00  5.3050000000E+00  0.0000000000E+00
           shiftk      5.00000000E-01  5.00000000E-01  5.00000000E-01
          spgroup         216
           symrel      1  0  0   0  1  0   0  0  1       0 -1  1   0 -1  0   1 -1  0
                      -1  0  0  -1  0  1  -1  1  0       0  1 -1   1  0 -1   0  0 -1
                      -1  0  0  -1  1  0  -1  0  1       0 -1  1   1 -1  0   0 -1  0
                       1  0  0   0  0  1   0  1  0       0  1 -1   0  0 -1   1  0 -1
                      -1  0  1  -1  1  0  -1  0  0       0 -1  0   1 -1  0   0 -1  1
                       1  0 -1   0  0 -1   0  1 -1       0  1  0   0  0  1   1  0  0
                       1  0 -1   0  1 -1   0  0 -1       0 -1  0   0 -1  1   1 -1  0
                      -1  0  1  -1  0  0  -1  1  0       0  1  0   1  0  0   0  0  1
                       0  0 -1   0  1 -1   1  0 -1       1 -1  0   0 -1  1   0 -1  0
                       0  0  1   1  0  0   0  1  0      -1  1  0  -1  0  0  -1  0  1
                       0  0  1   0  1  0   1  0  0       1 -1  0   0 -1  0   0 -1  1
                       0  0 -1   1  0 -1   0  1 -1      -1  1  0  -1  0  1  -1  0  0
           tolvrs      1.00000000E-10
            typat      1  2
              wtk        0.00781    0.00781    0.00781    0.00781    0.00781    0.00781
                         0.00781    0.00781    0.00781    0.00781    0.00781    0.00781
                         0.00781    0.00781    0.00781    0.00781    0.00781    0.00781
                         0.00781    0.00781    0.00781    0.00781    0.00781    0.00781
                         0.00781    0.00781    0.00781    0.00781    0.00781    0.00781
                         0.00781    0.00781    0.00781    0.00781    0.00781    0.00781
                         0.00781    0.00781    0.00781    0.00781    0.00781    0.00781
                         0.00781    0.00781    0.00781    0.00781    0.00781    0.00781
                         0.00781    0.00781
                       outvars : Printing only first  50 k-points.
           xangst      0.0000000000E+00  0.0000000000E+00  0.0000000000E+00
                       1.4036425458E+00  1.4036425458E+00  1.4036425458E+00
            xcart      0.0000000000E+00  0.0000000000E+00  0.0000000000E+00
                       2.6525000000E+00  2.6525000000E+00  2.6525000000E+00
             xred      0.0000000000E+00  0.0000000000E+00  0.0000000000E+00
                       2.5000000000E-01  2.5000000000E-01  2.5000000000E-01
            znucl       13.00000   33.00000

 chkinp: Checking input parameters for consistency.

== DATASET  1 ==================================================================
-   nproc =    2

 Real(R)+Recip(G) space primitive vectors, cartesian coordinates (Bohr,Bohr^-1):
 R(1)=  0.0000000  5.3050000  5.3050000  G(1)= -0.0942507  0.0942507  0.0942507
 R(2)=  5.3050000  0.0000000  5.3050000  G(2)=  0.0942507 -0.0942507  0.0942507
 R(3)=  5.3050000  5.3050000  0.0000000  G(3)=  0.0942507  0.0942507 -0.0942507
 Unit cell volume ucvol=  2.9859750E+02 bohr^3
 Angles (23,13,12)=  6.00000000E+01  6.00000000E+01  6.00000000E+01 degrees
 setup1 : take into account q-point for computing boxcut.

 getcut: wavevector=  0.0000  0.0000  0.0000  ngfft=  18  18  18
         ecut(hartree)=      6.000   => boxcut(ratio)=   2.18257

--- Pseudopotential description ------------------------------------------------
- pspini: atom type   1  psp file is /Users/gmatteo/git_repos/abipy/abipy/data/pseudos/13al.981214.fhi
- pspatm: opening atomic psp file    /Users/gmatteo/git_repos/abipy/abipy/data/pseudos/13al.981214.fhi
- Aluminum, fhi98PP : Hamann-type, LDA CA PerdewWang, l=2 local
- 13.00000   3.00000    981214                znucl, zion, pspdat
    6    7    2    2       493   0.00000      pspcod,pspxc,lmax,lloc,mmax,r2well
  No XC core correction.
  1.024700          amesh (Hamman grid)
  pspatm : epsatm=    1.36305739
         --- l  ekb(1:nproj) -->
             0    1.768744
             1    0.900554
 pspatm: atomic psp has been read  and splines computed

- pspini: atom type   2  psp file is /Users/gmatteo/git_repos/abipy/abipy/data/pseudos/33as.pspnc
- pspatm: opening atomic psp file    /Users/gmatteo/git_repos/abipy/abipy/data/pseudos/33as.pspnc
-  Troullier-Martins psp for element  As        Thu Oct 27 17:37:14 EDT 1994
- 33.00000   5.00000    940714                znucl, zion, pspdat
    1    1    1    1      2001   0.00000      pspcod,pspxc,lmax,lloc,mmax,r2well
    0   4.772  10.829    1   2.5306160        l,e99.0,e99.9,nproj,rcpsp
[...]
  pspatm : epsatm=   27.20579911
         --- l  ekb(1:nproj) -->
             0    0.838751
 pspatm: atomic psp has been read  and splines computed

   2.28550852E+02                                ecore*ucvol(ha*bohr**3)

-inwffil : will read wavefunctions from disk file /Users/gmatteo/git_repos/abitutorials/abitutorials/dfpt/flow_alas_phonons/w1/t4/indata/in_WFK

 ==>  initialize data related to q vector <==

 The list of irreducible perturbations for this q vector is:
    1)    idir= 1    ipert=   2
    2)    idir= 1    ipert=   4

 Perturbation wavevector (in red.coord.)   0.000000  0.000000  0.000000
 Perturbation : displacement of atom   2   along direction   1
 Found     2 symmetries that leave the perturbation invariant.
 symkpt : the number of k-points, thanks to the symmetries,
 is reduced to    72 .

[...]

 Initialisation of the first-order wave-functions :
  ireadwf=   0

     iter   2DEtotal(Ha)        deltaE(Ha) residm    vres2
-ETOT  1   38.702857231964     -5.322E+01 1.431E-01 1.199E+04
 ETOT  2   6.2240046748832     -3.248E+01 2.748E-02 2.172E+02
 ETOT  3   5.4462277385492     -7.778E-01 9.056E-04 3.547E+00
 ETOT  4   5.4397805276346     -6.447E-03 5.383E-06 4.613E-02
 ETOT  5   5.4397258192362     -5.471E-05 5.925E-08 2.879E-04
 ETOT  6   5.4397255332308     -2.860E-07 2.868E-10 3.333E-06
 ETOT  7   5.4397255288483     -4.382E-09 4.803E-12 1.776E-07
 ETOT  8   5.4397255284600     -3.883E-10 2.516E-13 5.886E-09
 ETOT  9   5.4397255284518     -8.228E-12 7.112E-15 2.150E-11

 At SCF step    9       vres2   =  2.15E-11 < tolvrs=  1.00E-10 =>converged.
-open ddk wf file :/Users/gmatteo/git_repos/abitutorials/abitutorials/dfpt/flow_alas_phonons/w1/t4/indata/in_1WF7
-open ddk wf file :/Users/gmatteo/git_repos/abitutorials/abitutorials/dfpt/flow_alas_phonons/w1/t4/indata/in_1WF8
-open ddk wf file :/Users/gmatteo/git_repos/abitutorials/abitutorials/dfpt/flow_alas_phonons/w1/t4/indata/in_1WF9

 ----iterations are completed or convergence reached----

 Mean square residual over all n,k,spin=   2.9473E-15; max=  7.1121E-15

 Thirteen components of 2nd-order total energy (hartree) are
 1,2,3: 0th-order hamiltonian combined with 1st-order wavefunctions
     kin0=   1.04046791E+02 eigvalue=   7.99215828E-01  local=  -5.39688226E+01
 4,5,6: 1st-order hamiltonian combined with 1st and 0th-order wfs
 loc psp =  -1.38864704E+02  Hartree=   3.64251117E+01     xc=  -1.13659116E+01
 note that "loc psp" includes a xc core correction that could be resolved
 7,8,9: eventually, occupation + non-local contributions
    edocc=   0.00000000E+00     enl0=   1.05456973E+01   enl1=  -3.40994592E+01
 1-9 gives the relaxation energy (to be shifted if some occ is /=2.0)
   erelax=  -8.64820822E+01
 10,11,12 Non-relaxation  contributions : frozen-wavefunctions and Ewald
 fr.local=   6.01385340E+01 fr.nonlo=   1.70763125E+01  Ewald=   1.18438931E+01
 13,14 Frozen wf xc core corrections (1) and (2)
 frxc 1  =  -1.85630276E+01  frxc 2 =   2.14260958E+01
 Resulting in :
 2DEtotal=    0.5439725528E+01 Ha. Also 2DEtotal=    0.148022459448E+03 eV
    (2DErelax=   -8.6482082166E+01 Ha. 2DEnonrelax=    9.1921807694E+01 Ha)
    (  non-var. 2DEtotal :    5.4397258902E+00 Ha)

 Perturbation wavevector (in red.coord.)   0.000000  0.000000  0.000000
 Perturbation : homogeneous electric field along direction   1
 The set of symmetries contains only one element for this perturbation.
 symkpt : not enough symmetry to change the number of k points.

-inwffil : will read wavefunctions from disk file /Users/gmatteo/git_repos/abitutorials/abitutorials/dfpt/flow_alas_phonons/w1/t4/indata/in_WFK

 Initialisation of the first-order wave-functions :
  ireadwf=   0
-dfpt_looppert : read the wavefunctions from file: /Users/gmatteo/git_repos/abitutorials/abitutorials/dfpt/flow_alas_phonons/w1/t4/indata/in_1WF7

     iter   2DEtotal(Ha)        deltaE(Ha) residm    vres2
-ETOT  1  -221.47438537427     -2.215E+02 1.285E+00 4.790E+03
 ETOT  2  -234.60440184955     -1.313E+01 1.055E-02 8.016E+01
 ETOT  3  -234.89324058075     -2.888E-01 4.016E-04 1.750E+00
 ETOT  4  -234.89678974885     -3.549E-03 2.509E-06 3.306E-02
 ETOT  5  -234.89683311554     -4.337E-05 4.839E-08 6.141E-04
 ETOT  6  -234.89683436806     -1.253E-06 8.663E-10 3.050E-05
 ETOT  7  -234.89683442919     -6.113E-08 3.650E-11 2.551E-07
 ETOT  8  -234.89683442948     -2.896E-10 2.955E-13 3.502E-09
 ETOT  9  -234.89683442949     -5.343E-12 4.157E-15 3.326E-11

 At SCF step    9       vres2   =  3.33E-11 < tolvrs=  1.00E-10 =>converged.
-open ddk wf file :/Users/gmatteo/git_repos/abitutorials/abitutorials/dfpt/flow_alas_phonons/w1/t4/indata/in_1WF7
-open ddk wf file :/Users/gmatteo/git_repos/abitutorials/abitutorials/dfpt/flow_alas_phonons/w1/t4/indata/in_1WF8
-open ddk wf file :/Users/gmatteo/git_repos/abitutorials/abitutorials/dfpt/flow_alas_phonons/w1/t4/indata/in_1WF9

 ----iterations are completed or convergence reached----

 Mean square residual over all n,k,spin=   1.5852E-15; max=  4.1572E-15

 Seven components of 2nd-order total energy (hartree) are
 1,2,3: 0th-order hamiltonian combined with 1st-order wavefunctions
     kin0=   7.65870704E+02 eigvalue=  -6.40537340E+01  local=  -6.84062168E+02
 4,5,6: 1st-order hamiltonian combined with 1st and 0th-order wfs
    dotwf=  -4.69793668E+02  Hartree=   3.27173339E+01     xc=  -1.89226253E+01
 7,8,9: eventually, occupation + non-local contributions
    edocc=   0.00000000E+00     enl0=   2.03347324E+02   enl1=   0.00000000E+00
 1-9 gives the relaxation energy (to be shifted if some occ is /=2.0)
   erelax=  -2.34896834E+02
  No Ewald or frozen-wf contrib.: the relaxation energy is the total one
 2DEtotal=   -0.2348968344E+03 Ha. Also 2DEtotal=   -0.639186792916E+04 eV
    (  non-var. 2DEtotal :   -2.3489683412E+02 Ha)

 ---- first-order wavefunction calculations are completed ----

 ==> Compute Derivative Database <==

  2nd-order matrix (non-cartesian coordinates, masses not included,
   asr not included )
     j1       j2             matrix element
  dir pert dir pert     real part     imaginary part

   1    1   1    2        -5.4397446723        -0.0000000000
   1    1   2    2        -2.7198723361         0.0000000000
   1    1   3    2        -2.7198723361         0.0000000000
   1    1   1    4        -5.4833696821         0.0000000000
   1    1   2    4        -0.0000000000         0.0000000000
   1    1   3    4        -0.0000000000         0.0000000000

[...]

  Dynamical matrix, in cartesian coordinates,
   if specified in the inputs, asr has been imposed
     j1       j2             matrix element
  dir pert dir pert     real part    imaginary part

[...]

  Dielectric tensor, in cartesian coordinates,
     j1       j2             matrix element
  dir pert dir pert     real part    imaginary part

[...]

  Effective charges, in cartesian coordinates,
  (from electric field response)
   if specified in the inputs, asr has been imposed
     j1       j2             matrix element
  dir pert dir pert     real part    imaginary part

[...]

  Effective charges, in cartesian coordinates,
  (from phonon response)
   if specified in the inputs, asr has been imposed
     j1       j2             matrix element
  dir pert dir pert     real part    imaginary part

[...]

   1    4   3    2         0.0000000000         0.0000000000
   2    4   3    2         0.0000000000         0.0000000000
   3    4   3    2        -2.2088109446         0.0000000000

  Phonon wavevector (reduced coordinates) :  0.00000  0.00000  0.00000
 Phonon energies in Hartree :
   0.000000E+00  0.000000E+00  0.000000E+00  8.412103E-04  8.412103E-04
   8.412103E-04
 Phonon frequencies in cm-1    :
-  0.000000E+00  0.000000E+00  0.000000E+00  1.846243E+02  1.846243E+02
-  1.846243E+02
 chkph3 : WARNING -
  The dynamical matrix was incomplete : phonon frequencies may be wrong ...

  Phonon at Gamma, with non-analyticity in the
  direction (cartesian coordinates)  1.00000  0.00000  0.00000
 Phonon energies in Hartree :
   0.000000E+00  0.000000E+00  0.000000E+00  8.412103E-04  8.412103E-04
   9.231715E-04
 Phonon frequencies in cm-1    :
-  0.000000E+00  0.000000E+00  0.000000E+00  1.846243E+02  1.846243E+02
-  2.026127E+02
 chkph3 : WARNING -
  The dynamical matrix was incomplete : phonon frequencies may be wrong ...

[...]

  Phonon at Gamma, with non-analyticity in the
  direction (cartesian coordinates)  0.00000  0.00000  1.00000
 Phonon energies in Hartree :
   0.000000E+00  0.000000E+00  0.000000E+00  8.412103E-04  8.412103E-04
   9.231715E-04
 Phonon frequencies in cm-1    :
-  0.000000E+00  0.000000E+00  0.000000E+00  1.846243E+02  1.846243E+02
-  2.026127E+02
 chkph3 : WARNING -
  The dynamical matrix was incomplete : phonon frequencies may be wrong ...

== END DATASET(S) ==============================================================

 -outvars: echo values of variables after computation  --------
            acell      1.0000000000E+00  1.0000000000E+00  1.0000000000E+00 Bohr
              amu      2.69815390E+01  7.49215900E+01
           diemac      9.00000000E+00
             ecut      6.00000000E+00 Hartree
           etotal     -2.3489683443E+02
            fcart      0.0000000000E+00  0.0000000000E+00  0.0000000000E+00
                       0.0000000000E+00  0.0000000000E+00  0.0000000000E+00
-          fftalg         112
           irdddk           1
           irdwfk           1
              kpt     -1.25000000E-01 -2.50000000E-01  0.00000000E+00
                      -2.50000000E-01 -1.25000000E-01  0.00000000E+00
                      -1.25000000E-01 -1.25000000E-01  1.25000000E-01
                      -1.25000000E-01  5.00000000E-01  0.00000000E+00
                      -2.50000000E-01 -3.75000000E-01  0.00000000E+00
                      -1.25000000E-01 -3.75000000E-01  1.25000000E-01
                      -3.75000000E-01 -2.50000000E-01  0.00000000E+00
                      -2.50000000E-01 -2.50000000E-01  1.25000000E-01
                      -1.25000000E-01 -2.50000000E-01  2.50000000E-01
                       5.00000000E-01 -1.25000000E-01  0.00000000E+00
                      -3.75000000E-01 -1.25000000E-01  1.25000000E-01
                      -2.50000000E-01 -1.25000000E-01  2.50000000E-01
                      -1.25000000E-01 -1.25000000E-01  3.75000000E-01
                      -1.25000000E-01  2.50000000E-01  0.00000000E+00
                      -2.50000000E-01  3.75000000E-01  0.00000000E+00
                      -1.25000000E-01  3.75000000E-01  1.25000000E-01
                      -3.75000000E-01  5.00000000E-01  0.00000000E+00
                      -2.50000000E-01  5.00000000E-01  1.25000000E-01
                      -1.25000000E-01  5.00000000E-01  2.50000000E-01
                       5.00000000E-01 -3.75000000E-01  0.00000000E+00
                      -3.75000000E-01 -3.75000000E-01  1.25000000E-01
                      -2.50000000E-01 -3.75000000E-01  2.50000000E-01
                      -1.25000000E-01 -3.75000000E-01  3.75000000E-01
                       3.75000000E-01 -2.50000000E-01  0.00000000E+00
                       5.00000000E-01 -2.50000000E-01  1.25000000E-01
                      -3.75000000E-01 -2.50000000E-01  2.50000000E-01
                      -2.50000000E-01 -2.50000000E-01  3.75000000E-01
                      -1.25000000E-01 -2.50000000E-01  5.00000000E-01
                       2.50000000E-01 -1.25000000E-01  0.00000000E+00
                       3.75000000E-01 -1.25000000E-01  1.25000000E-01
                       5.00000000E-01 -1.25000000E-01  2.50000000E-01
                      -3.75000000E-01 -1.25000000E-01  3.75000000E-01
                      -2.50000000E-01 -1.25000000E-01  5.00000000E-01
                      -1.25000000E-01 -1.25000000E-01 -3.75000000E-01
                      -1.25000000E-01  0.00000000E+00  0.00000000E+00
                      -1.25000000E-01  1.25000000E-01  1.25000000E-01
                      -2.50000000E-01  2.50000000E-01  1.25000000E-01
                      -1.25000000E-01  2.50000000E-01  2.50000000E-01
                      -3.75000000E-01  3.75000000E-01  1.25000000E-01
                      -2.50000000E-01  3.75000000E-01  2.50000000E-01
                      -1.25000000E-01  3.75000000E-01  3.75000000E-01
                       5.00000000E-01  5.00000000E-01  1.25000000E-01
                      -3.75000000E-01  5.00000000E-01  2.50000000E-01
                      -2.50000000E-01  5.00000000E-01  3.75000000E-01
                      -1.25000000E-01  5.00000000E-01  5.00000000E-01
                       3.75000000E-01 -3.75000000E-01  1.25000000E-01
                       5.00000000E-01 -3.75000000E-01  2.50000000E-01
                      -3.75000000E-01 -3.75000000E-01  3.75000000E-01
                      -2.50000000E-01 -3.75000000E-01  5.00000000E-01
                      -1.25000000E-01 -3.75000000E-01 -3.75000000E-01
                       outvar_i_n : Printing only first  50 k-points.
           kptopt           2
         kptrlatt        4   -4    4     -4    4    4     -4   -4    4
          kptrlen      4.24400000E+01
P           mkmem          64
P          mkqmem          64
P          mk1mem          64
            natom           2
            nband           4
            ngfft          18      18      18
             nkpt         128
             nqpt           1
            nstep          25
             nsym          24
           ntypat           2
              occ      2.000000  2.000000  2.000000  2.000000
        optdriver           1
          rfatpol           2       2
            rfdir           1       0       0
           rfelfd           3
           rfphon           1
            rprim      0.0000000000E+00  5.3050000000E+00  5.3050000000E+00
                       5.3050000000E+00  0.0000000000E+00  5.3050000000E+00
                       5.3050000000E+00  5.3050000000E+00  0.0000000000E+00
           shiftk      5.00000000E-01  5.00000000E-01  5.00000000E-01
          spgroup         216
           strten      0.0000000000E+00  0.0000000000E+00  0.0000000000E+00
                       0.0000000000E+00  0.0000000000E+00  0.0000000000E+00
           symrel      1  0  0   0  1  0   0  0  1       0 -1  1   0 -1  0   1 -1  0
                      -1  0  0  -1  0  1  -1  1  0       0  1 -1   1  0 -1   0  0 -1
                      -1  0  0  -1  1  0  -1  0  1       0 -1  1   1 -1  0   0 -1  0
                       1  0  0   0  0  1   0  1  0       0  1 -1   0  0 -1   1  0 -1
                      -1  0  1  -1  1  0  -1  0  0       0 -1  0   1 -1  0   0 -1  1
                       1  0 -1   0  0 -1   0  1 -1       0  1  0   0  0  1   1  0  0
                       1  0 -1   0  1 -1   0  0 -1       0 -1  0   0 -1  1   1 -1  0
                      -1  0  1  -1  0  0  -1  1  0       0  1  0   1  0  0   0  0  1
                       0  0 -1   0  1 -1   1  0 -1       1 -1  0   0 -1  1   0 -1  0
                       0  0  1   1  0  0   0  1  0      -1  1  0  -1  0  0  -1  0  1
                       0  0  1   0  1  0   1  0  0       1 -1  0   0 -1  0   0 -1  1
                       0  0 -1   1  0 -1   0  1 -1      -1  1  0  -1  0  1  -1  0  0
           tolvrs      1.00000000E-10
            typat      1  2
              wtk        0.00781    0.00781    0.00781    0.00781    0.00781    0.00781
                         0.00781    0.00781    0.00781    0.00781    0.00781    0.00781
                         0.00781    0.00781    0.00781    0.00781    0.00781    0.00781
                         0.00781    0.00781    0.00781    0.00781    0.00781    0.00781
                         0.00781    0.00781    0.00781    0.00781    0.00781    0.00781
                         0.00781    0.00781    0.00781    0.00781    0.00781    0.00781
                         0.00781    0.00781    0.00781    0.00781    0.00781    0.00781
                         0.00781    0.00781    0.00781    0.00781    0.00781    0.00781
                         0.00781    0.00781
                       outvars : Printing only first  50 k-points.
           xangst      0.0000000000E+00  0.0000000000E+00  0.0000000000E+00
                       1.4036425458E+00  1.4036425458E+00  1.4036425458E+00
            xcart      0.0000000000E+00  0.0000000000E+00  0.0000000000E+00
                       2.6525000000E+00  2.6525000000E+00  2.6525000000E+00
             xred      0.0000000000E+00  0.0000000000E+00  0.0000000000E+00
                       2.5000000000E-01  2.5000000000E-01  2.5000000000E-01
            znucl       13.00000   33.00000

- Timing analysis has been suppressed with timopt=0

 Suggested references for the acknowledgment of ABINIT usage.

 Calculation completed.
.Delivered   4 WARNINGs and   0 COMMENTs to log file.