.Version 8.7.6 of ABINIT

 ABINIT is a project of the Universite Catholique de Louvain,
 Corning Inc. and other collaborators, see ~abinit/doc/developers/contributors.txt .
 Please read ~abinit/doc/users/acknowledgments.html for suggested
 acknowledgments of the ABINIT effort.

.Starting date : Sun 18 Mar 2018.
- ( at 14h38 )

- input  file    -> /Users/gmatteo/git_repos/abitutorials/abitutorials/eph_al/flow_eph_al/w0/t0/run.abi
- output file    -> /Users/gmatteo/git_repos/abitutorials/abitutorials/eph_al/flow_eph_al/w0/t0/run.abo
- root for input  files -> /Users/gmatteo/git_repos/abitutorials/abitutorials/eph_al/flow_eph_al/w0/t0/indata/in
- root for output files -> /Users/gmatteo/git_repos/abitutorials/abitutorials/eph_al/flow_eph_al/w0/t0/outdata/out

 Symmetries : space group Fm -3 m (#225); Bravais cF (face-center cubic)
     intxc =       0    ionmov =       0      iscf =       7    lmnmax =       6
     lnmax =       6     mgfft =      15  mpssoang =       3    mqgrid =    3001
     natom =       1  nloc_mem =       1    nspden =       1   nspinor =       1
    nsppol =       1      nsym =      48    n1xccc =    2501    ntypat =       1
    occopt =       7   xclevel =       2
-    mband =           4        mffmem =           1         mkmem =          15
       mpw =         125          nfft =        3375          nkpt =          29
  Rough estimation (10% accuracy) of disk space for files :

------------- Echo of variables that govern the present computation ------------
-
- outvars: echo of selected default values
-   iomode0 =  0 , fftalg0 =112 , wfoptalg0 =  0
-
- outvars: echo of global parameters not present in the input file
-  max_nthreads =    0
-
 -outvars: echo values of preprocessed input variables --------
            acell      1.0000000000E+00  1.0000000000E+00  1.0000000000E+00 Bohr
              amu      2.69815390E+01
             ecut      8.00000000E+00 Hartree
-          fftalg         112
           istwfk        1    0    0    0    1    0    0    0    0    0
                         0    0    0    0    0    0    0    0    0    0
                         1    0    0    0    0    0    0    0    0
              ixc          11
              kpt      0.00000000E+00  0.00000000E+00  0.00000000E+00
                       1.25000000E-01  0.00000000E+00  0.00000000E+00
                       2.50000000E-01  0.00000000E+00  0.00000000E+00
                       3.75000000E-01  0.00000000E+00  0.00000000E+00
                       5.00000000E-01  0.00000000E+00  0.00000000E+00
                       1.25000000E-01  1.25000000E-01  0.00000000E+00
                       2.50000000E-01  1.25000000E-01  0.00000000E+00
                       3.75000000E-01  1.25000000E-01  0.00000000E+00
                       5.00000000E-01  1.25000000E-01  0.00000000E+00
                      -3.75000000E-01  1.25000000E-01  0.00000000E+00
                      -2.50000000E-01  1.25000000E-01  0.00000000E+00
                      -1.25000000E-01  1.25000000E-01  0.00000000E+00
                       2.50000000E-01  2.50000000E-01  0.00000000E+00
                       3.75000000E-01  2.50000000E-01  0.00000000E+00
                       5.00000000E-01  2.50000000E-01  0.00000000E+00
                      -3.75000000E-01  2.50000000E-01  0.00000000E+00
                      -2.50000000E-01  2.50000000E-01  0.00000000E+00
                       3.75000000E-01  3.75000000E-01  0.00000000E+00
                       5.00000000E-01  3.75000000E-01  0.00000000E+00
                      -3.75000000E-01  3.75000000E-01  0.00000000E+00
                       5.00000000E-01  5.00000000E-01  0.00000000E+00
                       3.75000000E-01  2.50000000E-01  1.25000000E-01
                       5.00000000E-01  2.50000000E-01  1.25000000E-01
                      -3.75000000E-01  2.50000000E-01  1.25000000E-01
                       5.00000000E-01  3.75000000E-01  1.25000000E-01
                      -3.75000000E-01  3.75000000E-01  1.25000000E-01
                      -2.50000000E-01  3.75000000E-01  1.25000000E-01
                      -3.75000000E-01  5.00000000E-01  1.25000000E-01
                      -2.50000000E-01  5.00000000E-01  2.50000000E-01
         kptrlatt        8    0    0      0    8    0      0    0    8
          kptrlen      4.24264069E+01
P           mkmem          15
            natom           1
            nband           4
            ngfft          15      15      15
             nkpt          29
             nsym          48
           ntypat           1
              occ      2.000000  1.000000  0.000000  0.000000
                       2.000000  1.000000  0.000000  0.000000
                       2.000000  1.000000  0.000000  0.000000
                       2.000000  1.000000  0.000000  0.000000
                       2.000000  1.000000  0.000000  0.000000
                       2.000000  1.000000  0.000000  0.000000
                       2.000000  1.000000  0.000000  0.000000
                       2.000000  1.000000  0.000000  0.000000
                       2.000000  1.000000  0.000000  0.000000
                       2.000000  1.000000  0.000000  0.000000
                       2.000000  1.000000  0.000000  0.000000
                       2.000000  1.000000  0.000000  0.000000
                       2.000000  1.000000  0.000000  0.000000
                       2.000000  1.000000  0.000000  0.000000
                       2.000000  1.000000  0.000000  0.000000
                       2.000000  1.000000  0.000000  0.000000
                       2.000000  1.000000  0.000000  0.000000
                       2.000000  1.000000  0.000000  0.000000
                       2.000000  1.000000  0.000000  0.000000
                       2.000000  1.000000  0.000000  0.000000
                       2.000000  1.000000  0.000000  0.000000
                       2.000000  1.000000  0.000000  0.000000
                       2.000000  1.000000  0.000000  0.000000
                       2.000000  1.000000  0.000000  0.000000
                       2.000000  1.000000  0.000000  0.000000
                       2.000000  1.000000  0.000000  0.000000
                       2.000000  1.000000  0.000000  0.000000
                       2.000000  1.000000  0.000000  0.000000
                       2.000000  1.000000  0.000000  0.000000
           occopt           7
            rprim      0.0000000000E+00  3.7500000000E+00  3.7500000000E+00
                       3.7500000000E+00  0.0000000000E+00  3.7500000000E+00
                       3.7500000000E+00  3.7500000000E+00  0.0000000000E+00
          spgroup         225
           symrel      1  0  0   0  1  0   0  0  1      -1  0  0   0 -1  0   0  0 -1
                       0 -1  1   0 -1  0   1 -1  0       0  1 -1   0  1  0  -1  1  0
                      -1  0  0  -1  0  1  -1  1  0       1  0  0   1  0 -1   1 -1  0
                       0  1 -1   1  0 -1   0  0 -1       0 -1  1  -1  0  1   0  0  1
                      -1  0  0  -1  1  0  -1  0  1       1  0  0   1 -1  0   1  0 -1
                       0 -1  1   1 -1  0   0 -1  0       0  1 -1  -1  1  0   0  1  0
                       1  0  0   0  0  1   0  1  0      -1  0  0   0  0 -1   0 -1  0
                       0  1 -1   0  0 -1   1  0 -1       0 -1  1   0  0  1  -1  0  1
                      -1  0  1  -1  1  0  -1  0  0       1  0 -1   1 -1  0   1  0  0
                       0 -1  0   1 -1  0   0 -1  1       0  1  0  -1  1  0   0  1 -1
                       1  0 -1   0  0 -1   0  1 -1      -1  0  1   0  0  1   0 -1  1
                       0  1  0   0  0  1   1  0  0       0 -1  0   0  0 -1  -1  0  0
                       1  0 -1   0  1 -1   0  0 -1      -1  0  1   0 -1  1   0  0  1
                       0 -1  0   0 -1  1   1 -1  0       0  1  0   0  1 -1  -1  1  0
                      -1  0  1  -1  0  0  -1  1  0       1  0 -1   1  0  0   1 -1  0
                       0  1  0   1  0  0   0  0  1       0 -1  0  -1  0  0   0  0 -1
                       0  0 -1   0  1 -1   1  0 -1       0  0  1   0 -1  1  -1  0  1
                       1 -1  0   0 -1  1   0 -1  0      -1  1  0   0  1 -1   0  1  0
                       0  0  1   1  0  0   0  1  0       0  0 -1  -1  0  0   0 -1  0
                      -1  1  0  -1  0  0  -1  0  1       1 -1  0   1  0  0   1  0 -1
                       0  0  1   0  1  0   1  0  0       0  0 -1   0 -1  0  -1  0  0
                       1 -1  0   0 -1  0   0 -1  1      -1  1  0   0  1  0   0  1 -1
                       0  0 -1   1  0 -1   0  1 -1       0  0  1  -1  0  1   0 -1  1
                      -1  1  0  -1  0  1  -1  0  0       1 -1  0   1  0 -1   1  0  0
           tolvrs      1.00000000E-07
           tsmear      4.00000000E-02 Hartree
            typat      1
              wtk        0.00195    0.01563    0.01563    0.01563    0.00781    0.01172
                         0.04688    0.04688    0.04688    0.04688    0.04688    0.02344
                         0.01172    0.04688    0.04688    0.04688    0.02344    0.01172
                         0.04688    0.02344    0.00586    0.04688    0.09375    0.04688
                         0.04688    0.09375    0.04688    0.02344    0.01172
            znucl       13.00000

 chkinp: Checking input parameters for consistency.

== DATASET  1 ==================================================================
-   nproc =    2

 Real(R)+Recip(G) space primitive vectors, cartesian coordinates (Bohr,Bohr^-1):
 R(1)=  0.0000000  3.7500000  3.7500000  G(1)= -0.1333333  0.1333333  0.1333333
 R(2)=  3.7500000  0.0000000  3.7500000  G(2)=  0.1333333 -0.1333333  0.1333333
 R(3)=  3.7500000  3.7500000  0.0000000  G(3)=  0.1333333  0.1333333 -0.1333333
 Unit cell volume ucvol=  1.0546875E+02 bohr^3
 Angles (23,13,12)=  6.00000000E+01  6.00000000E+01  6.00000000E+01 degrees

 getcut: wavevector=  0.0000  0.0000  0.0000  ngfft=  15  15  15
         ecut(hartree)=      8.000   => boxcut(ratio)=   2.08390

--- Pseudopotential description ------------------------------------------------
- pspini: atom type   1  psp file is /Users/gmatteo/git_repos/abipy/abipy/data/pseudos/Al.oncvpsp
- pspatm: opening atomic psp file    /Users/gmatteo/git_repos/abipy/abipy/data/pseudos/Al.oncvpsp
- Al    ONCVPSP  r_core=  1.77  1.77  1.71
- 13.00000   3.00000    150121                znucl, zion, pspdat
    8   11    2    4       600   0.00000      pspcod,pspxc,lmax,lloc,mmax,r2well
    5.99000000000000    0.65000000000000    0.00000000000000   rchrg,fchrg,qchrg
     nproj     2     2     2
     extension_switch     0
  pspatm : epsatm=    5.28546466
         --- l  ekb(1:nproj) -->
             0    5.189455    0.741531
             1    7.659436    0.819933
             2  -21.179473   -1.097800
 pspatm: atomic psp has been read  and splines computed

   1.58563940E+01                                ecore*ucvol(ha*bohr**3)

_setup2: Arith. and geom. avg. npw (full set) are     114.029     113.987

     iter   Etot(hartree)      deltaE(h)  residm     vres2
 ETOT  1  -3.2699629221328    -3.270E+00 3.040E-02 1.844E+00
 ETOT  2  -3.2707659003407    -8.030E-04 1.096E-03 7.717E-02
 ETOT  3  -3.2708017022155    -3.580E-05 3.706E-04 4.477E-04
 ETOT  4  -3.2708019748460    -2.726E-07 1.231E-04 2.476E-06
 ETOT  5  -3.2708019759557    -1.110E-09 9.672E-05 1.555E-08

 At SCF step    5       vres2   =  1.56E-08 < tolvrs=  1.00E-07 =>converged.

 Cartesian components of stress tensor (hartree/bohr^3)
  sigma(1 1)= -1.99600438E-04  sigma(3 2)=  0.00000000E+00
  sigma(2 2)= -1.99600438E-04  sigma(3 1)=  0.00000000E+00
  sigma(3 3)= -1.99600438E-04  sigma(2 1)=  0.00000000E+00

 Integrated electronic density in atomic spheres:
 Atom  Sphere_radius  Integrated_density
    1        2.00000          0.89763242

 ----iterations are completed or convergence reached----

 Mean square residual over all n,k,spin=   8.8465E-07; max=  9.6717E-05
 reduced coordinates (array xred) for    1 atoms
       0.000000000000      0.000000000000      0.000000000000
 rms dE/dt=  0.0000E+00; max dE/dt=  0.0000E+00; dE/dt below (all hartree)
    1       0.000000000000      0.000000000000      0.000000000000

 cartesian coordinates (angstrom) at end:
    1      0.00000000000000     0.00000000000000     0.00000000000000

 cartesian forces (hartree/bohr) at end:
    1     -0.00000000000000    -0.00000000000000    -0.00000000000000
 frms,max,avg= 0.0000000E+00 0.0000000E+00   0.000E+00  0.000E+00  0.000E+00 h/b

 cartesian forces (eV/Angstrom) at end:
    1     -0.00000000000000    -0.00000000000000    -0.00000000000000
 frms,max,avg= 0.0000000E+00 0.0000000E+00   0.000E+00  0.000E+00  0.000E+00 e/A
 length scales=  1.000000000000  1.000000000000  1.000000000000 bohr
              =  0.529177208590  0.529177208590  0.529177208590 angstroms
 prteigrs : about to open file /Users/gmatteo/git_repos/abitutorials/abitutorials/eph_al/flow_eph_al/w0/t0/outdata/out_EIG
 Fermi (or HOMO) energy (hartree) =   0.26170   Average Vxc (hartree)=  -0.38234
 Eigenvalues (hartree) for nkpt=  29  k points:
 kpt#   1, nband=  4, wtk=  0.00195, kpt=  0.0000  0.0000  0.0000 (reduced coord)
  -0.16114    0.74433    0.74434    0.74434
      occupation numbers for kpt#   1
   2.00000    0.00000    0.00000    0.00000
 prteigrs : prtvol=0 or 1, do not print more k-points.

 Components of total free energy (in Hartree) :

    Kinetic energy  =  8.83336306467192E-01
    Hartree energy  =  4.14004405907604E-03
    XC energy       = -2.05932848978215E+00
    Ewald energy    = -2.75091724446829E+00
    PspCore energy  =  1.50342105880268E-01
    Loc. psp. energy=  1.24363619133709E-01
    NL   psp  energy=  3.85873571165589E-01
    >>>>> Internal E= -3.26219008754460E+00

    -kT*entropy     = -8.61188841111136E-03
    >>>>>>>>> Etotal= -3.27080197595571E+00

 Other information on the energy :
    Total energy(eV)= -8.90030480977774E+01 ; Band energy (Ha)=   2.8938819104E-01

 Cartesian components of stress tensor (hartree/bohr^3)
  sigma(1 1)= -1.99600438E-04  sigma(3 2)=  0.00000000E+00
  sigma(2 2)= -1.99600438E-04  sigma(3 1)=  0.00000000E+00
  sigma(3 3)= -1.99600438E-04  sigma(2 1)=  0.00000000E+00

-Cartesian components of stress tensor (GPa)         [Pressure=  5.8724E+00 GPa]
- sigma(1 1)= -5.87244663E+00  sigma(3 2)=  0.00000000E+00
- sigma(2 2)= -5.87244663E+00  sigma(3 1)=  0.00000000E+00
- sigma(3 3)= -5.87244663E+00  sigma(2 1)=  0.00000000E+00

== END DATASET(S) ==============================================================

 -outvars: echo values of variables after computation  --------
            acell      1.0000000000E+00  1.0000000000E+00  1.0000000000E+00 Bohr
              amu      2.69815390E+01
             ecut      8.00000000E+00 Hartree
           etotal     -3.2708019760E+00
            fcart     -0.0000000000E+00 -0.0000000000E+00 -0.0000000000E+00
-          fftalg         112
           istwfk        1    0    0    0    1    0    0    0    0    0
                         0    0    0    0    0    0    0    0    0    0
                         1    0    0    0    0    0    0    0    0
              ixc          11
              kpt      0.00000000E+00  0.00000000E+00  0.00000000E+00
                       1.25000000E-01  0.00000000E+00  0.00000000E+00
                       2.50000000E-01  0.00000000E+00  0.00000000E+00
                       3.75000000E-01  0.00000000E+00  0.00000000E+00
                       5.00000000E-01  0.00000000E+00  0.00000000E+00
                       1.25000000E-01  1.25000000E-01  0.00000000E+00
                       2.50000000E-01  1.25000000E-01  0.00000000E+00
                       3.75000000E-01  1.25000000E-01  0.00000000E+00
                       5.00000000E-01  1.25000000E-01  0.00000000E+00
                      -3.75000000E-01  1.25000000E-01  0.00000000E+00
                      -2.50000000E-01  1.25000000E-01  0.00000000E+00
                      -1.25000000E-01  1.25000000E-01  0.00000000E+00
                       2.50000000E-01  2.50000000E-01  0.00000000E+00
                       3.75000000E-01  2.50000000E-01  0.00000000E+00
                       5.00000000E-01  2.50000000E-01  0.00000000E+00
                      -3.75000000E-01  2.50000000E-01  0.00000000E+00
                      -2.50000000E-01  2.50000000E-01  0.00000000E+00
                       3.75000000E-01  3.75000000E-01  0.00000000E+00
                       5.00000000E-01  3.75000000E-01  0.00000000E+00
                      -3.75000000E-01  3.75000000E-01  0.00000000E+00
                       5.00000000E-01  5.00000000E-01  0.00000000E+00
                       3.75000000E-01  2.50000000E-01  1.25000000E-01
                       5.00000000E-01  2.50000000E-01  1.25000000E-01
                      -3.75000000E-01  2.50000000E-01  1.25000000E-01
                       5.00000000E-01  3.75000000E-01  1.25000000E-01
                      -3.75000000E-01  3.75000000E-01  1.25000000E-01
                      -2.50000000E-01  3.75000000E-01  1.25000000E-01
                      -3.75000000E-01  5.00000000E-01  1.25000000E-01
                      -2.50000000E-01  5.00000000E-01  2.50000000E-01
         kptrlatt        8    0    0      0    8    0      0    0    8
          kptrlen      4.24264069E+01
P           mkmem          15
            natom           1
            nband           4
            ngfft          15      15      15
             nkpt          29
             nsym          48
           ntypat           1
              occ      2.000000  0.000000  0.000000  0.000000
                       2.000000  0.000000  0.000000  0.000000
                       2.000000  0.000002  0.000000  0.000000
                       2.000000  1.723113  0.000000  0.000000
                       2.000000  2.000000  0.000000  0.000000
                       2.000000  0.000000  0.000000  0.000000
                       2.000000  0.000000  0.000000  0.000000
                       2.000000  0.228477  0.000000  0.000000
                       2.000000  1.999924  0.000000  0.000000
                       2.000000  1.981199  0.000000  0.000000
                       2.000000  0.002016  0.000000  0.000000
                       2.000000  0.000000  0.000000  0.000000
                       2.000000  0.000000  0.000000  0.000000
                       2.000000  0.000011  0.000000  0.000000
                       2.000000  1.654126  0.000000  0.000000
                       2.000000  1.990238  0.000415  0.000000
                       2.000000  0.087605  0.000110  0.000000
                       2.000000  0.000366  0.000000  0.000000
                       2.000000  0.565531  0.002157  0.000000
                       1.987340  1.930624  1.274987  0.000000
                       1.999899  1.960336  0.000000  0.000000
                       2.000000  0.000000  0.000000  0.000000
                       2.000000  0.799004  0.000000  0.000000
                       1.999998  1.999982  0.000000  0.000000
                       2.000000  0.001864  0.000053  0.000000
                       1.999952  1.764403  0.039867  0.000000
                       2.000000  1.307202  0.091550  0.000000
                       1.998577  1.818164  0.015948  0.000003
                       1.726390  1.726299  0.853863  0.063972
           occopt           7
            rprim      0.0000000000E+00  3.7500000000E+00  3.7500000000E+00
                       3.7500000000E+00  0.0000000000E+00  3.7500000000E+00
                       3.7500000000E+00  3.7500000000E+00  0.0000000000E+00
          spgroup         225
           strten     -1.9960043762E-04 -1.9960043762E-04 -1.9960043762E-04
                       0.0000000000E+00  0.0000000000E+00  0.0000000000E+00
           symrel      1  0  0   0  1  0   0  0  1      -1  0  0   0 -1  0   0  0 -1
                       0 -1  1   0 -1  0   1 -1  0       0  1 -1   0  1  0  -1  1  0
                      -1  0  0  -1  0  1  -1  1  0       1  0  0   1  0 -1   1 -1  0
                       0  1 -1   1  0 -1   0  0 -1       0 -1  1  -1  0  1   0  0  1
                      -1  0  0  -1  1  0  -1  0  1       1  0  0   1 -1  0   1  0 -1
                       0 -1  1   1 -1  0   0 -1  0       0  1 -1  -1  1  0   0  1  0
                       1  0  0   0  0  1   0  1  0      -1  0  0   0  0 -1   0 -1  0
                       0  1 -1   0  0 -1   1  0 -1       0 -1  1   0  0  1  -1  0  1
                      -1  0  1  -1  1  0  -1  0  0       1  0 -1   1 -1  0   1  0  0
                       0 -1  0   1 -1  0   0 -1  1       0  1  0  -1  1  0   0  1 -1
                       1  0 -1   0  0 -1   0  1 -1      -1  0  1   0  0  1   0 -1  1
                       0  1  0   0  0  1   1  0  0       0 -1  0   0  0 -1  -1  0  0
                       1  0 -1   0  1 -1   0  0 -1      -1  0  1   0 -1  1   0  0  1
                       0 -1  0   0 -1  1   1 -1  0       0  1  0   0  1 -1  -1  1  0
                      -1  0  1  -1  0  0  -1  1  0       1  0 -1   1  0  0   1 -1  0
                       0  1  0   1  0  0   0  0  1       0 -1  0  -1  0  0   0  0 -1
                       0  0 -1   0  1 -1   1  0 -1       0  0  1   0 -1  1  -1  0  1
                       1 -1  0   0 -1  1   0 -1  0      -1  1  0   0  1 -1   0  1  0
                       0  0  1   1  0  0   0  1  0       0  0 -1  -1  0  0   0 -1  0
                      -1  1  0  -1  0  0  -1  0  1       1 -1  0   1  0  0   1  0 -1
                       0  0  1   0  1  0   1  0  0       0  0 -1   0 -1  0  -1  0  0
                       1 -1  0   0 -1  0   0 -1  1      -1  1  0   0  1  0   0  1 -1
                       0  0 -1   1  0 -1   0  1 -1       0  0  1  -1  0  1   0 -1  1
                      -1  1  0  -1  0  1  -1  0  0       1 -1  0   1  0 -1   1  0  0
           tolvrs      1.00000000E-07
           tsmear      4.00000000E-02 Hartree
            typat      1
              wtk        0.00195    0.01563    0.01563    0.01563    0.00781    0.01172
                         0.04688    0.04688    0.04688    0.04688    0.04688    0.02344
                         0.01172    0.04688    0.04688    0.04688    0.02344    0.01172
                         0.04688    0.02344    0.00586    0.04688    0.09375    0.04688
                         0.04688    0.09375    0.04688    0.02344    0.01172
            znucl       13.00000

- Timing analysis has been suppressed with timopt=0

 Suggested references for the acknowledgment of ABINIT usage.

 Calculation completed.
.Delivered   0 WARNINGs and   0 COMMENTs to log file.