.Version 9.6.2.38 of ABINIT

 ABINIT is a project of the Universite Catholique de Louvain,
 Corning Inc. and other collaborators, see ~abinit/doc/developers/contributors.txt .
 acknowledgments of the ABINIT effort.

.Starting date : Mon 10 Jun 2024.
- ( at 13h45 )

- input  file    -> /Users/jbouquiaux/git/lumi_book/lumi_book/lumi/flow_deltaSCF/w0/t0/run.abi
- output file    -> /Users/jbouquiaux/git/lumi_book/lumi_book/lumi/flow_deltaSCF/w0/t0/run.abo
- root for input  files -> indata/in
- root for output files -> outdata/out

- inpspheads : Reading pseudopotential header in XML form from
-   /Users/jbouquiaux/git/lumi_book/lumi_book/lumi/pseudos/Eu.xml
- inpspheads : Reading pseudopotential header in XML form from
-   /Users/jbouquiaux/git/lumi_book/lumi_book/lumi/pseudos/Sr.xml
- inpspheads : Reading pseudopotential header in XML form from
-   /Users/jbouquiaux/git/lumi_book/lumi_book/lumi/pseudos/Li.xml
- inpspheads : Reading pseudopotential header in XML form from
-   /Users/jbouquiaux/git/lumi_book/lumi_book/lumi/pseudos/Al.xml
- inpspheads : Reading pseudopotential header in XML form from
-   /Users/jbouquiaux/git/lumi_book/lumi_book/lumi/pseudos/N.xml
- inpspheads : Reading pseudopotential header in XML form from
-   /Users/jbouquiaux/git/lumi_book/lumi_book/lumi/pseudos/O.xml
 Symmetries : space group P2/m (# 10); Bravais mP (primitive monocl.)
     intxc =       0    ionmov =       2      iscf =      17    lmnmax =      32
     lnmax =       8     mgfft =      48  mpssoang =       4    mqgrid =    3180
     natom =      36  nloc_mem =       2    nspden =       2   nspinor =       1
    nsppol =       2      nsym =       4    n1xccc =       1    ntypat =       6
    occopt =       2   xclevel =       1
-    mband =         115        mffmem =           1         mkmem =           1
       mpw =        2369          nfft =       82944          nkpt =           1
Pmy_natom=        18
 PAW method is used; the additional fine FFT grid is defined by:
   mgfftf=        64    nfftf =    221184
  Rough estimation (10% accuracy) of disk space for files :

------------- Echo of variables that govern the present computation ------------
-
- outvars: echo of selected default values
-   iomode0 =  0 , fftalg0 =112 , wfoptalg0 = 10
-
- outvars: echo of global parameters not present in the input file
-  max_nthreads =    0
-
 -outvars: echo values of preprocessed input variables --------
-          iomode           1
            acell      1.0000000000E+00  1.0000000000E+00  1.0000000000E+00 Bohr
              amu      1.51965000E+02  8.76200000E+01  6.94100000E+00
                       2.69815390E+01  1.40067400E+01  1.59994000E+01
       chkdilatmx           0
          chkprim           0
      chksymbreak           0
     densfor_pred           6
           diemac      5.00000000E+00
          dilatmx      1.05000000E+00
             ecut      1.00000000E+01 Hartree
           ecutsm      5.00000000E-01 Hartree
-          fftalg         112
           ionmov           2
           istwfk        2
              ixc       -1012
            jpawu      2.57245278E-02  0.00000000E+00  0.00000000E+00  0.00000000E+00  0.00000000E+00  0.00000000E+00 Hartree
         kptrlatt        1    0    0      0    1    0      0    0    1
          kptrlen      1.20337760E+01
            lpawu           3      -1      -1      -1      -1      -1
P           mkmem           1
            natom          36
            nband         115     115
            ngfft          48      48      36
          ngfftdg          64      64      54
             nkpt           1
-        np_spkpt           2
           nspden           2
           nsppol           2
            nstep         100
             nsym           4
            ntime        1000
           ntypat           6
              occ      1.000000  1.000000  1.000000  1.000000  1.000000  1.000000
                       1.000000  1.000000  1.000000  1.000000  1.000000  1.000000
                       1.000000  1.000000  1.000000  1.000000  1.000000  1.000000
                       1.000000  1.000000  1.000000  1.000000  1.000000  1.000000
                       1.000000  1.000000  1.000000  1.000000  1.000000  1.000000
                       1.000000  1.000000  1.000000  1.000000  1.000000  1.000000
                       1.000000  1.000000  1.000000  1.000000  1.000000  1.000000
                       1.000000  1.000000  1.000000  1.000000  1.000000  1.000000
                       1.000000  1.000000  1.000000  1.000000  1.000000  1.000000
                       1.000000  1.000000  1.000000  1.000000  1.000000  1.000000
                       1.000000  1.000000  1.000000  1.000000  1.000000  1.000000
                       1.000000  1.000000  1.000000  1.000000  1.000000  1.000000
                       1.000000  1.000000  1.000000  1.000000  1.000000  1.000000
                       1.000000  1.000000  1.000000  1.000000  1.000000  1.000000
                       1.000000  1.000000  1.000000  1.000000  1.000000  1.000000
                       1.000000  1.000000  1.000000  1.000000  1.000000  0.000000
                       0.000000  0.000000  0.000000  0.000000  0.000000  0.000000
                       0.000000  0.000000  0.000000  0.000000  0.000000  0.000000
                       0.000000  0.000000  0.000000  0.000000  0.000000  0.000000
                       0.000000
                       1.000000  1.000000  1.000000  1.000000  1.000000  1.000000
                       1.000000  1.000000  1.000000  1.000000  1.000000  1.000000
                       1.000000  1.000000  1.000000  1.000000  1.000000  1.000000
                       1.000000  1.000000  1.000000  1.000000  1.000000  1.000000
                       1.000000  1.000000  1.000000  1.000000  1.000000  1.000000
                       1.000000  1.000000  1.000000  1.000000  1.000000  1.000000
                       1.000000  1.000000  1.000000  1.000000  1.000000  1.000000
                       1.000000  1.000000  1.000000  1.000000  1.000000  1.000000
                       1.000000  1.000000  1.000000  1.000000  1.000000  1.000000
                       1.000000  1.000000  1.000000  1.000000  1.000000  1.000000
                       1.000000  1.000000  1.000000  1.000000  1.000000  1.000000
                       1.000000  1.000000  1.000000  1.000000  1.000000  1.000000
                       1.000000  1.000000  1.000000  1.000000  1.000000  1.000000
                       1.000000  1.000000  1.000000  1.000000  1.000000  1.000000
                       1.000000  1.000000  1.000000  1.000000  0.000000  0.000000
                       0.000000  0.000000  0.000000  0.000000  0.000000  0.000000
                       0.000000  0.000000  0.000000  0.000000  0.000000  0.000000
                       0.000000  0.000000  0.000000  0.000000  0.000000  0.000000
                       0.000000  0.000000  0.000000  0.000000  0.000000  0.000000
                       0.000000
           occopt           2
        optforces           1
        paral_kgb           1
        pawecutdg      2.00000000E+01 Hartree
            prtwf          -1
            rprim      1.5040330226E+01  0.0000000000E+00  0.0000000000E+00
                       0.0000000000E+00  1.5040330226E+01  0.0000000000E+00
                       0.0000000000E+00  0.0000000000E+00  1.2033775962E+01
          spgroup          10
           spinat      0.0000000000E+00  0.0000000000E+00  7.0000000000E+00
                       0.0000000000E+00  0.0000000000E+00  0.0000000000E+00
                       0.0000000000E+00  0.0000000000E+00  0.0000000000E+00
                       0.0000000000E+00  0.0000000000E+00  0.0000000000E+00
                       0.0000000000E+00  0.0000000000E+00  0.0000000000E+00
                       0.0000000000E+00  0.0000000000E+00  0.0000000000E+00
                       0.0000000000E+00  0.0000000000E+00  0.0000000000E+00
                       0.0000000000E+00  0.0000000000E+00  0.0000000000E+00
                       0.0000000000E+00  0.0000000000E+00  0.0000000000E+00
                       0.0000000000E+00  0.0000000000E+00  0.0000000000E+00
                       0.0000000000E+00  0.0000000000E+00  0.0000000000E+00
                       0.0000000000E+00  0.0000000000E+00  0.0000000000E+00
                       0.0000000000E+00  0.0000000000E+00  0.0000000000E+00
                       0.0000000000E+00  0.0000000000E+00  0.0000000000E+00
                       0.0000000000E+00  0.0000000000E+00  0.0000000000E+00
                       0.0000000000E+00  0.0000000000E+00  0.0000000000E+00
                       0.0000000000E+00  0.0000000000E+00  0.0000000000E+00
                       0.0000000000E+00  0.0000000000E+00  0.0000000000E+00
                       0.0000000000E+00  0.0000000000E+00  0.0000000000E+00
                       0.0000000000E+00  0.0000000000E+00  0.0000000000E+00
                       0.0000000000E+00  0.0000000000E+00  0.0000000000E+00
                       0.0000000000E+00  0.0000000000E+00  0.0000000000E+00
                       0.0000000000E+00  0.0000000000E+00  0.0000000000E+00
                       0.0000000000E+00  0.0000000000E+00  0.0000000000E+00
                       0.0000000000E+00  0.0000000000E+00  0.0000000000E+00
                       0.0000000000E+00  0.0000000000E+00  0.0000000000E+00
                       0.0000000000E+00  0.0000000000E+00  0.0000000000E+00
                       0.0000000000E+00  0.0000000000E+00  0.0000000000E+00
                       0.0000000000E+00  0.0000000000E+00  0.0000000000E+00
                       0.0000000000E+00  0.0000000000E+00  0.0000000000E+00
                       0.0000000000E+00  0.0000000000E+00  0.0000000000E+00
                       0.0000000000E+00  0.0000000000E+00  0.0000000000E+00
                       0.0000000000E+00  0.0000000000E+00  0.0000000000E+00
                       0.0000000000E+00  0.0000000000E+00  0.0000000000E+00
                       0.0000000000E+00  0.0000000000E+00  0.0000000000E+00
                       0.0000000000E+00  0.0000000000E+00  0.0000000000E+00
           symrel      1  0  0   0  1  0   0  0  1      -1  0  0   0 -1  0   0  0 -1
                      -1  0  0   0 -1  0   0  0  1       1  0  0   0  1  0   0  0 -1
            tnons      0.0000000  0.0000000  0.0000000    -0.0000000  0.0000000  0.5000000
                      -0.0000000  0.0000000  0.0000000     0.0000000  0.0000000  0.5000000
           toldff      1.00000000E-04
           tolmxf      1.00000000E-03
            typat      1  2  2  2  3  3  3  3  3  3  3  3  4  4  4  4  4  4  4  4
                       5  5  5  5  5  5  5  5  6  6  6  6  6  6  6  6
            upawu      2.57245278E-01  0.00000000E+00  0.00000000E+00  0.00000000E+00  0.00000000E+00  0.00000000E+00 Hartree
          usepawu           1
           useylm           1
         wfoptalg         114
           xangst      3.9794999826E+00  0.0000000000E+00  1.5919999930E+00
                       3.9794999826E+00  0.0000000000E+00  4.7759999791E+00
                       0.0000000000E+00  3.9794999826E+00  0.0000000000E+00
[...]
                      -1.3583348465E-04 -1.2091479024E-04 -0.0000000000E+00
                      -1.8909792615E-04 -4.1235324233E-05  4.2961401683E-27
-          fftalg         112
           ionmov           2
           istwfk        2
              ixc       -1012
            jpawu      2.57245278E-02  0.00000000E+00  0.00000000E+00  0.00000000E+00  0.00000000E+00  0.00000000E+00 Hartree
         kptrlatt        1    0    0      0    1    0      0    0    1
          kptrlen      1.20337760E+01
            lpawu           3      -1      -1      -1      -1      -1
P           mkmem           1
            natom          36
            nband         115     115
            ngfft          48      48      36
          ngfftdg          64      64      54
             nkpt           1
-        np_spkpt           2
           nspden           2
           nsppol           2
            nstep         100
             nsym           4
            ntime        1000
           ntypat           6
              occ      1.000000  1.000000  1.000000  1.000000  1.000000  1.000000
                       1.000000  1.000000  1.000000  1.000000  1.000000  1.000000
                       1.000000  1.000000  1.000000  1.000000  1.000000  1.000000
                       1.000000  1.000000  1.000000  1.000000  1.000000  1.000000
                       1.000000  1.000000  1.000000  1.000000  1.000000  1.000000
                       1.000000  1.000000  1.000000  1.000000  1.000000  1.000000
                       1.000000  1.000000  1.000000  1.000000  1.000000  1.000000
                       1.000000  1.000000  1.000000  1.000000  1.000000  1.000000
                       1.000000  1.000000  1.000000  1.000000  1.000000  1.000000
                       1.000000  1.000000  1.000000  1.000000  1.000000  1.000000
                       1.000000  1.000000  1.000000  1.000000  1.000000  1.000000
                       1.000000  1.000000  1.000000  1.000000  1.000000  1.000000
                       1.000000  1.000000  1.000000  1.000000  1.000000  1.000000
                       1.000000  1.000000  1.000000  1.000000  1.000000  1.000000
                       1.000000  1.000000  1.000000  1.000000  1.000000  1.000000
                       1.000000  1.000000  1.000000  1.000000  1.000000  0.000000
                       0.000000  0.000000  0.000000  0.000000  0.000000  0.000000
                       0.000000  0.000000  0.000000  0.000000  0.000000  0.000000
                       0.000000  0.000000  0.000000  0.000000  0.000000  0.000000
                       0.000000
                       1.000000  1.000000  1.000000  1.000000  1.000000  1.000000
                       1.000000  1.000000  1.000000  1.000000  1.000000  1.000000
                       1.000000  1.000000  1.000000  1.000000  1.000000  1.000000
                       1.000000  1.000000  1.000000  1.000000  1.000000  1.000000
                       1.000000  1.000000  1.000000  1.000000  1.000000  1.000000
                       1.000000  1.000000  1.000000  1.000000  1.000000  1.000000
                       1.000000  1.000000  1.000000  1.000000  1.000000  1.000000
                       1.000000  1.000000  1.000000  1.000000  1.000000  1.000000
                       1.000000  1.000000  1.000000  1.000000  1.000000  1.000000
                       1.000000  1.000000  1.000000  1.000000  1.000000  1.000000
                       1.000000  1.000000  1.000000  1.000000  1.000000  1.000000
                       1.000000  1.000000  1.000000  1.000000  1.000000  1.000000
                       1.000000  1.000000  1.000000  1.000000  1.000000  1.000000
                       1.000000  1.000000  1.000000  1.000000  1.000000  1.000000
                       1.000000  1.000000  1.000000  1.000000  0.000000  0.000000
                       0.000000  0.000000  0.000000  0.000000  0.000000  0.000000
                       0.000000  0.000000  0.000000  0.000000  0.000000  0.000000
                       0.000000  0.000000  0.000000  0.000000  0.000000  0.000000
                       0.000000  0.000000  0.000000  0.000000  0.000000  0.000000
                       0.000000
           occopt           2
        optforces           1
        paral_kgb           1
        pawecutdg      2.00000000E+01 Hartree
            prtwf          -1
            rprim      1.5040330226E+01  0.0000000000E+00  0.0000000000E+00
                       0.0000000000E+00  1.5040330226E+01  0.0000000000E+00
                       0.0000000000E+00  0.0000000000E+00  1.2033775962E+01
          spgroup          10
           spinat      0.0000000000E+00  0.0000000000E+00  7.0000000000E+00
                       0.0000000000E+00  0.0000000000E+00  0.0000000000E+00
                       0.0000000000E+00  0.0000000000E+00  0.0000000000E+00
                       0.0000000000E+00  0.0000000000E+00  0.0000000000E+00
                       0.0000000000E+00  0.0000000000E+00  0.0000000000E+00
                       0.0000000000E+00  0.0000000000E+00  0.0000000000E+00
                       0.0000000000E+00  0.0000000000E+00  0.0000000000E+00
                       0.0000000000E+00  0.0000000000E+00  0.0000000000E+00
                       0.0000000000E+00  0.0000000000E+00  0.0000000000E+00
                       0.0000000000E+00  0.0000000000E+00  0.0000000000E+00
                       0.0000000000E+00  0.0000000000E+00  0.0000000000E+00
                       0.0000000000E+00  0.0000000000E+00  0.0000000000E+00
                       0.0000000000E+00  0.0000000000E+00  0.0000000000E+00
                       0.0000000000E+00  0.0000000000E+00  0.0000000000E+00
                       0.0000000000E+00  0.0000000000E+00  0.0000000000E+00
                       0.0000000000E+00  0.0000000000E+00  0.0000000000E+00
                       0.0000000000E+00  0.0000000000E+00  0.0000000000E+00
                       0.0000000000E+00  0.0000000000E+00  0.0000000000E+00
                       0.0000000000E+00  0.0000000000E+00  0.0000000000E+00
                       0.0000000000E+00  0.0000000000E+00  0.0000000000E+00
                       0.0000000000E+00  0.0000000000E+00  0.0000000000E+00
                       0.0000000000E+00  0.0000000000E+00  0.0000000000E+00
                       0.0000000000E+00  0.0000000000E+00  0.0000000000E+00
                       0.0000000000E+00  0.0000000000E+00  0.0000000000E+00
                       0.0000000000E+00  0.0000000000E+00  0.0000000000E+00
                       0.0000000000E+00  0.0000000000E+00  0.0000000000E+00
                       0.0000000000E+00  0.0000000000E+00  0.0000000000E+00
                       0.0000000000E+00  0.0000000000E+00  0.0000000000E+00
                       0.0000000000E+00  0.0000000000E+00  0.0000000000E+00
                       0.0000000000E+00  0.0000000000E+00  0.0000000000E+00
                       0.0000000000E+00  0.0000000000E+00  0.0000000000E+00
                       0.0000000000E+00  0.0000000000E+00  0.0000000000E+00
                       0.0000000000E+00  0.0000000000E+00  0.0000000000E+00
                       0.0000000000E+00  0.0000000000E+00  0.0000000000E+00
                       0.0000000000E+00  0.0000000000E+00  0.0000000000E+00
                       0.0000000000E+00  0.0000000000E+00  0.0000000000E+00
           strten      3.9234408260E-04  3.9382261060E-04 -2.6786536396E-05
                       0.0000000000E+00  0.0000000000E+00 -9.3008703226E-07
           symrel      1  0  0   0  1  0   0  0  1      -1  0  0   0 -1  0   0  0 -1
                      -1  0  0   0 -1  0   0  0  1       1  0  0   0  1  0   0  0 -1
            tnons      0.0000000  0.0000000  0.0000000    -0.0000000  0.0000000  0.5000000
                      -0.0000000  0.0000000  0.0000000     0.0000000  0.0000000  0.5000000
           toldff      1.00000000E-04
           tolmxf      1.00000000E-03
            typat      1  2  2  2  3  3  3  3  3  3  3  3  4  4  4  4  4  4  4  4
                       5  5  5  5  5  5  5  5  6  6  6  6  6  6  6  6
            upawu      2.57245278E-01  0.00000000E+00  0.00000000E+00  0.00000000E+00  0.00000000E+00  0.00000000E+00 Hartree
          usepawu           1
           useylm           1
         wfoptalg         114
           xangst      3.9794999826E+00  0.0000000000E+00  1.5919999930E+00
                       3.9794999826E+00  0.0000000000E+00  4.7759999791E+00
                      -4.4181325072E-16  3.9794999826E+00  7.5719316456E-04
                      -4.4181325072E-16  3.9794999826E+00  3.1832427929E+00
                       1.0143247790E+00  6.5690571805E+00  1.5919999930E+00
                       1.0111621850E+00  6.5663566219E+00  4.7759999791E+00
                       6.9446751862E+00  1.3899427847E+00  1.5919999930E+00
                       6.9478377802E+00  1.3926433433E+00  4.7759999791E+00
                       1.3927589218E+00  1.0130984915E+00  1.8301360789E-03
                       1.3927589218E+00  1.0130984915E+00  3.1821698500E+00
                       6.5662410434E+00  6.9459014737E+00  1.8301360789E-03
                       6.5662410434E+00  6.9459014737E+00  3.1821698500E+00
                       2.7994832609E+00  5.4313804085E+00  1.3556939332E-03
                       2.7994832609E+00  5.4313804085E+00  3.1826442921E+00
                       5.1595167043E+00  2.5276195567E+00  1.3556939332E-03
                       5.1595167043E+00  2.5276195567E+00  3.1826442921E+00
                       2.5294160873E+00  2.7943317516E+00  1.5919999930E+00
                       2.5291677171E+00  2.7979241240E+00  4.7759999791E+00
                       5.4295838779E+00  5.1646682136E+00  1.5919999930E+00
                       5.4298322481E+00  5.1610758412E+00  4.7759999791E+00
                       4.6504816076E+00  5.8173135707E+00 -4.5713094171E-04
                       4.6504816076E+00  5.8173135707E+00  3.1844571170E+00
                       3.3085183576E+00  2.1416863945E+00 -4.5713094171E-04
                       3.3085183576E+00  2.1416863945E+00  3.1844571170E+00
                       2.1504989183E+00  4.6488692930E+00  1.5919999930E+00
                       2.1522159787E+00  4.6510079274E+00  4.7759999791E+00
                       5.8085010469E+00  3.3101306722E+00  1.5919999930E+00
                       5.8067839865E+00  3.3079920379E+00  4.7759999791E+00
                       2.0097207165E+00  7.0596015934E+00 -5.2637370622E-04
                       2.0097207165E+00  7.0596015934E+00  3.1845263598E+00
                       5.9492792487E+00  8.9939837181E-01 -5.2637370622E-04
                       5.9492792487E+00  8.9939837181E-01  3.1845263598E+00
                       8.9776047283E-01  2.0143457930E+00  1.5919999930E+00
                       8.9722774381E-01  2.0175379074E+00  4.7759999791E+00
                       7.0612394924E+00  5.9446541722E+00  1.5919999930E+00
                       7.0617722214E+00  5.9414620578E+00  4.7759999791E+00
            xcart      7.5201651129E+00  0.0000000000E+00  3.0084439904E+00
                       7.5201651129E+00  0.0000000000E+00  9.0253319712E+00
                      -8.3490604574E-16  7.5201651130E+00  1.4308877107E-03
                      -8.3490604574E-16  7.5201651130E+00  6.0154570931E+00
                       1.9167960422E+00  1.2413719022E+01  3.0084439904E+00
                       1.9108196057E+00  1.2408615706E+01  9.0253319712E+00
                       1.3123534184E+01  2.6266112034E+00  3.0084439904E+00
                       1.3129510620E+01  2.6317145197E+00  9.0253319712E+00
                       2.6319329314E+00  1.9144786945E+00  3.4584559751E-03
                       2.6319329314E+00  1.9144786945E+00  6.0134295248E+00
                       1.2408397294E+01  1.3125851531E+01  3.4584559751E-03
                       1.2408397294E+01  1.3125851531E+01  6.0134295248E+00
                       5.2902566767E+00  1.0263821496E+01  2.5618902537E-03
                       5.2902566767E+00  1.0263821496E+01  6.0143260905E+00
                       9.7500735492E+00  4.7765087302E+00  2.5618902537E-03
                       9.7500735492E+00  4.7765087302E+00  6.0143260905E+00
                       4.7799036811E+00  5.2805217350E+00  3.0084439904E+00
                       4.7794343295E+00  5.2873103350E+00  9.0253319712E+00
                       1.0260426545E+01  9.7598084909E+00  3.0084439904E+00
                       1.0260895896E+01  9.7530198909E+00  9.0253319712E+00
                       8.7881366244E+00  1.0993129478E+01 -8.6385228669E-04
                       8.7881366244E+00  1.0993129478E+01  6.0177518331E+00
                       6.2521936015E+00  4.0472007481E+00 -8.6385228669E-04
                       6.2521936015E+00  4.0472007481E+00  6.0177518331E+00
                       4.0638540047E+00  8.7850897913E+00  3.0084439904E+00
                       4.0670987786E+00  8.7891312246E+00  9.0253319712E+00
                       1.0976476221E+01  6.2552404346E+00  3.0084439904E+00
                       1.0973231447E+01  6.2511990013E+00  9.0253319712E+00
                       3.7978217579E+00  1.3340713619E+01 -9.9470214830E-04
                       3.7978217579E+00  1.3340713619E+01  6.0178826829E+00
                       1.1242508468E+01  1.6996166071E+00 -9.9470214830E-04
                       1.1242508468E+01  1.6996166071E+00  6.0178826829E+00
                       1.6965214266E+00  3.8065618856E+00  3.0084439904E+00
                       1.6955147146E+00  3.8125941077E+00  9.0253319712E+00
                       1.3343808799E+01  1.1233768340E+01  3.0084439904E+00
                       1.3344815511E+01  1.1227736118E+01  9.0253319712E+00
             xred      5.0000000000E-01  0.0000000000E+00  2.5000000000E-01
                       5.0000000000E-01  0.0000000000E+00  7.5000000000E-01
                      -5.5511151231E-17  5.0000000000E-01  1.1890596229E-04
                      -5.5511151231E-17  5.0000000000E-01  4.9988109404E-01
                       1.2744374714E-01  8.2536213208E-01  2.5000000000E-01
                       1.2704638641E-01  8.2502282329E-01  7.5000000000E-01
                       8.7255625286E-01  1.7463786792E-01  2.5000000000E-01
                       8.7295361359E-01  1.7497717671E-01  7.5000000000E-01
                       1.7499169844E-01  1.2728967155E-01  2.8739574230E-04
                       1.7499169844E-01  1.2728967155E-01  4.9971260426E-01
                       8.2500830156E-01  8.7271032845E-01  2.8739574230E-04
                       8.2500830156E-01  8.7271032845E-01  4.9971260426E-01
                       3.5173806674E-01  6.8241995631E-01  2.1289163617E-04
                       3.5173806674E-01  6.8241995631E-01  4.9978710836E-01
                       6.4826193326E-01  3.1758004369E-01  2.1289163617E-04
                       6.4826193326E-01  3.1758004369E-01  4.9978710836E-01
                       3.1780576685E-01  3.5109081089E-01  2.5000000000E-01
                       3.1777456065E-01  3.5154217066E-01  7.5000000000E-01
                       6.8219423315E-01  6.4890918911E-01  2.5000000000E-01
                       6.8222543935E-01  6.4845782934E-01  7.5000000000E-01
                       5.8430476542E-01  7.3091011385E-01 -7.1785638145E-05
                       5.8430476542E-01  7.3091011385E-01  5.0007178564E-01
                       4.1569523458E-01  2.6908988615E-01 -7.1785638145E-05
                       4.1569523458E-01  2.6908988615E-01  5.0007178564E-01
                       2.7019712624E-01  5.8410218787E-01  2.5000000000E-01
                       2.7041286444E-01  5.8437089429E-01  7.5000000000E-01
                       7.2980287376E-01  4.1589781213E-01  2.5000000000E-01
                       7.2958713556E-01  4.1562910571E-01  7.5000000000E-01
                       2.5250920032E-01  8.8699605783E-01 -8.2659187895E-05
                       2.5250920032E-01  8.8699605783E-01  5.0008265919E-01
                       7.4749079968E-01  1.1300394217E-01 -8.2659187895E-05
                       7.4749079968E-01  1.1300394217E-01  5.0008265919E-01
                       1.1279815011E-01  2.5309031308E-01  2.5000000000E-01
                       1.1273121595E-01  2.5349138286E-01  7.5000000000E-01
                       8.8720184989E-01  7.4690968692E-01  2.5000000000E-01
                       8.8726878405E-01  7.4650861714E-01  7.5000000000E-01
            znucl       63.00000   38.00000    3.00000   13.00000    7.00000    8.00000

- Timing analysis has been suppressed with timopt=0

 Suggested references for the acknowledgment of ABINIT usage.

 Calculation completed.
.Delivered   0 WARNINGs and   0 COMMENTs to log file.